LAMMPS (22 Jul 2025 - Update 4)
# Одноосное растяжение поликристалла
# Обязательные -var: temp datafile potfile elem material

units           metal
atom_style      atomic
boundary        p p p

read_data       ${datafile}
read_data       /Users/danilavertiy/Downloads/atomsk-polycrystal-tension/models/Al_poly.data
Reading data file ...
  orthogonal box = (0 0 0) to (60 60 60)
  1 by 1 by 1 MPI processor grid
  reading atoms ...
  12790 atoms
  read_data CPU = 0.020 seconds

pair_style      eam/alloy
pair_coeff      * * ${potfile} ${elem}
pair_coeff      * * /Users/danilavertiy/Downloads/atomsk-polycrystal-tension/potentials/Al_zhou.eam.alloy ${elem}
pair_coeff      * * /Users/danilavertiy/Downloads/atomsk-polycrystal-tension/potentials/Al_zhou.eam.alloy Al
Reading eam/alloy potential file /Users/danilavertiy/Downloads/atomsk-polycrystal-tension/potentials/Al_zhou.eam.alloy with DATE: 2007-10-12

neighbor        2.0 bin
neigh_modify    delay 10 every 1

timestep        0.001

reset_timestep  0
minimize        1.0e-12 1.0e-12 500 5000
Switching to 'neigh_modify every 1 delay 0 check yes' setting during minimization
Neighbor list info ...
  update: every = 1 steps, delay = 0 steps, check = yes
  max neighbors/atom: 2000, page size: 100000
  master list distance cutoff = 12.1025
  ghost atom cutoff = 12.1025
  binsize = 6.05125, bins = 10 10 10
  1 neighbor lists, perpetual/occasional/extra = 1 0 0
  (1) pair eam/alloy, perpetual
      attributes: half, newton on
      pair build: half/bin/atomonly/newton
      stencil: half/bin/3d
      bin: standard
Per MPI rank memory allocation (min/avg/max) = 23.03 | 23.03 | 23.03 Mbytes
   Step          Temp          E_pair         E_mol          TotEng         Press     
         0   0             -40955.556      0             -40955.556      68182.616    
       500   0             -45315.482      0             -45315.482      23504.443    
Loop time of 40.6833 on 1 procs for 500 steps with 12790 atoms

99.7% CPU use with 1 MPI tasks x no OpenMP threads

Minimization stats:
  Stopping criterion = max iterations
  Energy initial, next-to-last, final = 
     -40955.5563016907   -45315.456735025  -45315.4819575211
  Force two-norm initial, final = 917.05532 0.38125013
  Force max component initial, final = 193.45198 0.15901509
  Final line search alpha, max atom move = 1 0.15901509
  Iterations, force evaluations = 500 730

MPI task timing breakdown:
Section |  min time  |  avg time  |  max time  |%varavg| %total
---------------------------------------------------------------
Pair    | 38.707     | 38.707     | 38.707     |   0.0 | 95.14
Neigh   | 1.7245     | 1.7245     | 1.7245     |   0.0 |  4.24
Comm    | 0.050724   | 0.050724   | 0.050724   |   0.0 |  0.12
Output  | 3.2458e-05 | 3.2458e-05 | 3.2458e-05 |   0.0 |  0.00
Modify  | 0          | 0          | 0          |   0.0 |  0.00
Other   |            | 0.2013     |            |       |  0.49

Nlocal:          12790 ave       12790 max       12790 min
Histogram: 1 0 0 0 0 0 0 0 0 0
Nghost:          22557 ave       22557 max       22557 min
Histogram: 1 0 0 0 0 0 0 0 0 0
Neighs:    2.78132e+06 ave 2.78132e+06 max 2.78132e+06 min
Histogram: 1 0 0 0 0 0 0 0 0 0

Total # of neighbors = 2781320
Ave neighs/atom = 217.46052
Neighbor list builds = 34
Dangerous builds = 0

variable        T equal ${temp}
variable        T equal 600
velocity        all create ${T} 492845 rot yes dist gaussian
velocity        all create 600 492845 rot yes dist gaussian

fix             eq all npt temp ${T} ${T} 0.1 iso 0 0 1
fix             eq all npt temp 600 ${T} 0.1 iso 0 0 1
fix             eq all npt temp 600 600 0.1 iso 0 0 1
thermo          500
thermo_style    custom step temp pe press lx ly lz
run             10000
Per MPI rank memory allocation (min/avg/max) = 20.04 | 20.04 | 20.04 Mbytes
   Step          Temp          PotEng         Press            Lx             Ly             Lz      
       500   600           -45315.482      28409.204      60             60             60           
      1000   392.01056     -44601.549      326.99719      61.233054      61.233054      61.233054    
      1500   568.47423     -44203.566      501.8316       61.604995      61.604995      61.604995    
      2000   598.6706      -44068.048     -36.633762      61.755226      61.755226      61.755226    
      2500   602.17301     -44043.273     -85.387714      61.779232      61.779232      61.779232    
      3000   596.6573      -44030.43       127.29573      61.786979      61.786979      61.786979    
      3500   597.62878     -43993.138      65.901754      61.822066      61.822066      61.822066    
      4000   599.90032     -43991.408     -24.868561      61.829065      61.829065      61.829065    
      4500   600.49427     -43962.276      127.63302      61.846605      61.846605      61.846605    
      5000   598.74142     -43942.841      24.57729       61.870414      61.870414      61.870414    
      5500   600.74958     -43935.452      157.19731      61.877484      61.877484      61.877484    
      6000   594.49221     -43912.578     -78.528667      61.904962      61.904962      61.904962    
      6500   603.57793     -43891.226      97.187827      61.918052      61.918052      61.918052    
      7000   598.60654     -43874.107      268.31751      61.925874      61.925874      61.925874    
      7500   599.15044     -43876.492     -292.58187      61.948858      61.948858      61.948858    
      8000   598.96615     -43838.952      209.37162      61.958859      61.958859      61.958859    
      8500   600.60093     -43835.015     -47.197415      61.981699      61.981699      61.981699    
      9000   595.75844     -43841.827     -195.53849      61.977042      61.977042      61.977042    
      9500   596.45651     -43814.682      374.97285      61.98325       61.98325       61.98325     
     10000   598.13666     -43796.513     -268.15184      62.023134      62.023134      62.023134    
     10500   599.97812     -43794.747      602.35741      61.991743      61.991743      61.991743    
Loop time of 464.036 on 1 procs for 10000 steps with 12790 atoms

Performance: 1.862 ns/day, 12.890 hours/ns, 21.550 timesteps/s, 275.625 katom-step/s
99.5% CPU use with 1 MPI tasks x no OpenMP threads

MPI task timing breakdown:
Section |  min time  |  avg time  |  max time  |%varavg| %total
---------------------------------------------------------------
Pair    | 453.55     | 453.55     | 453.55     |   0.0 | 97.74
Neigh   | 7.5616     | 7.5616     | 7.5616     |   0.0 |  1.63
Comm    | 0.57126    | 0.57126    | 0.57126    |   0.0 |  0.12
Output  | 0.0023368  | 0.0023368  | 0.0023368  |   0.0 |  0.00
Modify  | 2.1742     | 2.1742     | 2.1742     |   0.0 |  0.47
Other   |            | 0.173      |            |       |  0.04

Nlocal:          12790 ave       12790 max       12790 min
Histogram: 1 0 0 0 0 0 0 0 0 0
Nghost:          21598 ave       21598 max       21598 min
Histogram: 1 0 0 0 0 0 0 0 0 0
Neighs:    2.53689e+06 ave 2.53689e+06 max 2.53689e+06 min
Histogram: 1 0 0 0 0 0 0 0 0 0

Total # of neighbors = 2536889
Ave neighs/atom = 198.34941
Neighbor list builds = 183
Dangerous builds = 0
unfix           eq

variable        L0 equal lx
print           "L0=${L0} T=${T} material=${material}"
L0=61.9917427753211 T=600 material=Al

reset_timestep  0
fix             1 all npt temp ${T} ${T} 0.1 y 0 0 1 z 0 0 1 drag 1.0
fix             1 all npt temp 600 ${T} 0.1 y 0 0 1 z 0 0 1 drag 1.0
fix             1 all npt temp 600 600 0.1 y 0 0 1 z 0 0 1 drag 1.0
variable        erate equal 1.0e9
variable        erate_ps equal "v_erate/1.0e12"
fix             2 all deform 1 x erate ${erate_ps} units box remap x
fix             2 all deform 1 x erate 0.001 units box remap x

variable        strain equal "(lx - v_L0)/v_L0"
variable        sxx equal "-pxx/10000"
variable        syy equal "-pyy/10000"
variable        szz equal "-pzz/10000"
fix             out all print 200 "${strain} ${sxx} ${syy} ${szz}" file stress_strain.dat screen no

dump            1 all custom 2000 dump_tension.lammpstrj id type x y z
dump_modify     1 element ${elem} sort id
dump_modify     1 element Al sort id

thermo          500
thermo_style    custom step v_strain temp press pxx pyy pzz ke pe
run             30000
Per MPI rank memory allocation (min/avg/max) = 20.04 | 20.04 | 20.04 Mbytes
   Step        v_strain         Temp          Press           Pxx            Pyy            Pzz           KinEng         PotEng    
         0   0              599.97812      602.35741      1045.158       288.62816      473.28608      991.82863     -43794.747    
       500  -6.8736991e-16  599.37053     -0.87075016     426.42937     -307.47783     -121.56379      990.82421     -43790.279    
      1000   3.4351328e-16  601.76931     -403.7824      -336.48774     -500.06511     -374.79434      994.78966     -43784.885    
      1500  -3.4334178e-16  599.62162     -263.67746     -286.41004     -597.77302      93.15069       991.23929     -43775.6      
      2000   5.7195076e-16  605.74481      68.702231      52.181849      58.262634      95.662211      1001.3616     -43774.627    
      2500   1.143331e-16   602.17127      135.0866       343.47869      296.13612     -234.355        995.45414     -43771.738    
      3000  -5.7138052e-16  600.77839      278.8856       930.86668      8.2068606     -102.41673      993.15156     -43770.351    
      3500   4.5687666e-16  599.42928      80.945463      206.09688      10.917647      25.821864      990.92134     -43765.586    
      4000  -1.1416228e-16  602.75427     -87.0993        360.30793     -185.33253     -436.2733       996.4179      -43772.521    
      4500  -7.987382e-16   602.10614      105.63491     -57.130581      21.13075       352.90455      995.34648     -43768.304    
      5000   2.2809738e-16  594.75007      364.16214     -0.12034966     591.22665      501.38014      983.18609     -43759.679    
      5500  -4.5596791e-16  600.26223     -128.41614      103.72663     -73.209933     -415.76512      992.29828     -43776.49     
      6000   4.5574128e-16  599.14108     -18.891379      12.548546      93.653104     -162.87579      990.4449      -43765.111    
      6500  -1.1387872e-16  603.10611      235.72052     -189.16384      671.42889      224.89651      996.99954     -43776.684    
      7000   7.9675524e-16  600.19349      2.0745495     -3.8927044      223.45327     -213.33691      992.18466     -43766.298    
      7500   1.1376569e-16  603.83759      467.87342      575.78499      267.08984      560.74545      998.20876     -43777.093    
      8000  -4.5483703e-16  598.90469      30.322488      346.77016     -129.52869     -126.27401      990.05413     -43771.691    
      8500   4.5461153e-16  606.45087      132.54416      373.20346     -88.600032      113.02905      1002.5288     -43776.778    
      9000  -2.2719313e-16  596.71012      344.87611      154.27423      553.77583      326.57828      986.42627     -43763.499    
      9500   7.9478209e-16  596.04943     -388.18764     -581.12544      215.48806     -798.92554      985.33408     -43760.252    
     10000   1.1348409e-16  601.14925     -116.26391      298.77042     -410.74145     -236.8207       993.76463     -43771.441    
     10500  -5.6713969e-16  604.76573      299.804        646.76355     -246.09231      498.74076      999.74306     -43782.798    
     11000   5.6685921e-16  598.15417     -185.06674      56.425295     -283.14165     -328.48386      988.81344     -43772.171    
     11500   0              601.28489     -2.4097971      179.43044      57.735559     -244.39539      993.98886     -43776.055    
     12000  -5.6629907e-16  599.96377     -809.4346      -778.40301     -878.92576     -770.97502      991.80491     -43771.243    
     12500   3.3961165e-16  594.94925     -57.618431      45.955659     -8.5286459     -210.28231      983.51535     -43764.336    
     13000  -3.3944402e-16  600.18367      501.22458      571.739        379.72905      552.2057       992.16842     -43776.492    
     13500   6.7855313e-16  596.83733      200.03747     -52.899821      542.1457       110.86652      986.63655     -43770.045    
     14000   0              601.73488     -205.21946     -302.86492     -422.82175      110.02827      994.73275     -43771.969    
     14500  -6.7788427e-16  602.44598     -429.8911      -87.501075     -342.70323     -859.469        995.90827     -43776.813    
     15000   3.3877517e-16  597.16864      711.5828       574.52473      755.9635       804.26017      987.18426     -43763.565    
     15500  -3.3860837e-16  601.64895      121.45151     -1.3536239      58.03056       307.67759      994.59069     -43776.822    
     16000   5.6406955e-16  598.79914      138.18762      305.78245     -152.04368      260.82408      989.87964     -43772.7      
     16500   0              600.02723     -368.25419     -831.92526      58.987442     -331.82474      991.90981     -43762.626    
     17000  -6.7621789e-16  603.27156     -174.82006     -116.62502     -467.31668      59.481508      997.27304     -43771.372    
     17500   2.252952e-16   602.16437      286.28618      428.27551      35.363817      395.21922      995.44273     -43768.775    
     18000  -3.3777681e-16  602.97539      329.44204      588.08794     -101.61223      501.8504       996.78343     -43777.328    
     18500   5.6268499e-16  594.81392     -221.24936     -279.85219     -416.27392      32.378031      983.29165     -43759.253    
     19000   2.2496356e-16  597.85165      73.430984     -46.864262      319.16324     -52.006031      988.31334     -43766.308    
     19500  -4.4970645e-16  596.23432     -187.20697     -35.08785      -283.78191     -242.75114      985.63972     -43766.085    
     20000   4.4948601e-16  596.71706      11.388792     -151.34158      323.49002     -137.98206      986.43775     -43756.576    
     20500  -1.1231645e-16  592.83579      289.76308      720.84353      155.57288     -7.1271631      980.02158     -43760.9      
     21000   7.8583009e-16  599.2291      -434.25213     -393.85738     -701.2731      -207.62592      990.59042     -43767.059    
     21500   1.1220649e-16  595.30813     -173.44718     -400.71073     -79.878577     -39.75223       984.10863     -43761.568    
     22000  -4.4860639e-16  600.78713      236.16688     -15.504141      74.26039       649.74438      993.16601     -43766.755    
     22500   4.4838702e-16  599.22426     -192.02776     -256.45902     -215.72201     -103.90224      990.58242     -43767.569    
     23000  -2.2408393e-16  596.22079      214.90305     -33.281887      590.41983      87.571198      985.61736     -43760.526    
     23500   7.8391063e-16  600.19866      55.956405      578.07439     -386.54259     -23.662586      992.1932      -43765.4      
     24000   1.1193255e-16  601.37681      422.24716      324.72944      621.43642      320.57564      994.14081     -43772.913    
     24500  -5.5938962e-16  598.97293     -122.0073       51.665634     -204.66374     -213.02381      990.16693     -43765.801    
     25000   4.4729339e-16  594.5328      -184.26351     -244.86205     -614.95104      307.02255      982.82693     -43765.267    
     25500  -2.2353765e-16  604.8039      -170.03164     -245.26388      47.850941     -312.68199      999.80615     -43781.904    
     26000   7.8200051e-16  605.21017     -60.613731     -159.78473      216.66607     -238.72253      1000.4778     -43778.093    
     26500   2.2331989e-16  603.13107     -231.9776      -185.26965     -170.15063     -340.51252      997.04079     -43779.309    
     27000  -4.4642233e-16  604.31297      279.48293      573.585        388.41642     -123.55262      998.9946      -43768.867    
     27500   6.6930763e-16  605.88261      136.44011      241.25568      73.845456      94.219187      1001.5894     -43784.407    
     28000   0              600.54408     -144.4354      -355.66374      224.5991      -302.24155      992.76423     -43776.302    
     28500  -6.6865687e-16  597.6029      -303.53095     -318.25985     -614.97283      22.639825      987.90213     -43768.933    
     29000   3.3416598e-16  605.11702      16.093303     -0.69274447     155.39298     -106.42032      1000.3238     -43779.524    
     29500  -3.3400369e-16  596.42725     -110.4435      -95.534454      77.965145     -313.7612       985.95866     -43766.335    
     30000   5.5640258e-16  595.42237      177.1551       214.54076      437.01908     -120.09454      984.29749     -43764.465    
Loop time of 1555.06 on 1 procs for 30000 steps with 12790 atoms

Performance: 1.667 ns/day, 14.399 hours/ns, 19.292 timesteps/s, 246.742 katom-step/s
90.7% CPU use with 1 MPI tasks x no OpenMP threads

MPI task timing breakdown:
Section |  min time  |  avg time  |  max time  |%varavg| %total
---------------------------------------------------------------
Pair    | 1520.2     | 1520.2     | 1520.2     |   0.0 | 97.76
Neigh   | 23.847     | 23.847     | 23.847     |   0.0 |  1.53
Comm    | 1.8238     | 1.8238     | 1.8238     |   0.0 |  0.12
Output  | 0.12094    | 0.12094    | 0.12094    |   0.0 |  0.01
Modify  | 8.5471     | 8.5471     | 8.5471     |   0.0 |  0.55
Other   |            | 0.5555     |            |       |  0.04

Nlocal:          12790 ave       12790 max       12790 min
Histogram: 1 0 0 0 0 0 0 0 0 0
Nghost:          21596 ave       21596 max       21596 min
Histogram: 1 0 0 0 0 0 0 0 0 0
Neighs:    2.53343e+06 ave 2.53343e+06 max 2.53343e+06 min
Histogram: 1 0 0 0 0 0 0 0 0 0

Total # of neighbors = 2533426
Ave neighs/atom = 198.07866
Neighbor list builds = 562
Dangerous builds = 0

print           "Done."
Done.
Total wall time: 0:34:20
