 # Positions of grains centers of mass
 CRYSTAL
 PRIMVEC
     60.00000000        0.00000000        0.00000000
      0.00000000       60.00000000        0.00000000
      0.00000000        0.00000000       60.00000000
 CONVVEC
     60.00000000        0.00000000        0.00000000
      0.00000000       60.00000000        0.00000000
      0.00000000        0.00000000       60.00000000
 PRIMCOORD
        8 1
1       32.24214011       20.69632801       26.26927566
1       30.93129208       21.72042925       25.66866858
1       30.44358888       21.46936562       25.48575112
1       32.50072645       20.30827138       24.14328538
1       29.86422489       21.23018644       26.76437526
1       31.89201929       21.35016777       27.30319263
1       29.99092009       21.62029990       26.20466266
1       32.66470984       20.23404883       22.87925962
