 # Positions of nodes
 CRYSTAL
 PRIMVEC
     60.00000000        0.00000000        0.00000000
      0.00000000       60.00000000        0.00000000
      0.00000000        0.00000000       60.00000000
 CONVVEC
     60.00000000        0.00000000        0.00000000
      0.00000000       60.00000000        0.00000000
      0.00000000        0.00000000       60.00000000
 PRIMCOORD
        8 1
1       29.17691218       31.45630880       25.64826337
1       33.61712717       33.86054385       31.43798492
1       33.46259102       31.83992400       36.80771808
1       35.28016555       36.97016754       33.97215549
1       41.06014890       38.71108026       38.63058306
1       31.85524952       32.45966416       30.79289056
1       32.06014245       33.99396336       38.37358233
1       30.45190491       37.47814721       34.75950298
