 # Positions of grains centers of mass
 CRYSTAL
 PRIMVEC
     60.00000000        0.00000000        0.00000000
      0.00000000       60.00000000        0.00000000
      0.00000000        0.00000000       60.00000000
 CONVVEC
     60.00000000        0.00000000        0.00000000
      0.00000000       60.00000000        0.00000000
      0.00000000        0.00000000       60.00000000
 PRIMCOORD
        8 1
1       30.11541108       13.12989310       20.10246302
1       30.24520922       13.63329230       18.40213728
1       31.02660163       14.08697017       19.42228520
1       31.98947607       13.74181898       21.10777353
1       29.77816596       14.05891563       17.42301789
1       30.17667407       13.32524547       19.81290632
1       30.57294486       13.65563670       19.57384623
1       31.00014148       14.07025801       19.43098099
