 # Positions of nodes
 CRYSTAL
 PRIMVEC
     60.00000000        0.00000000        0.00000000
      0.00000000       60.00000000        0.00000000
      0.00000000        0.00000000       60.00000000
 CONVVEC
     60.00000000        0.00000000        0.00000000
      0.00000000       60.00000000        0.00000000
      0.00000000        0.00000000       60.00000000
 PRIMCOORD
        8 1
1       25.85193541       29.27960036       31.91085376
1       38.39467172       41.87260750       42.31499612
1       36.91622409       33.62757871       38.93863674
1       30.87311575       28.80122505       23.99005255
1       38.95326521       35.82043213       38.62268664
1       41.12192275       47.81830883       43.23012735
1       36.47434046       30.72029542       30.28633177
1       31.47317361       38.76572098       32.94009497
