LAMMPS (22 Jul 2025 - Update 4)
# Одноосное растяжение поликристалла
# Обязательные -var: temp datafile potfile elem material

units           metal
atom_style      atomic
boundary        p p p

read_data       ${datafile}
read_data       /Users/danilavertiy/Downloads/atomsk-polycrystal-tension/models/Cu_poly.data
Reading data file ...
  orthogonal box = (0 0 0) to (60 60 60)
  1 by 1 by 1 MPI processor grid
  reading atoms ...
  17939 atoms
  read_data CPU = 0.046 seconds

pair_style      eam/alloy
pair_coeff      * * ${potfile} ${elem}
pair_coeff      * * /Users/danilavertiy/Downloads/atomsk-polycrystal-tension/potentials/Cu_mishin1.eam.alloy ${elem}
pair_coeff      * * /Users/danilavertiy/Downloads/atomsk-polycrystal-tension/potentials/Cu_mishin1.eam.alloy Cu
Reading eam/alloy potential file /Users/danilavertiy/Downloads/atomsk-polycrystal-tension/potentials/Cu_mishin1.eam.alloy with DATE: 2007-10-12

neighbor        2.0 bin
neigh_modify    delay 10 every 1

timestep        0.001

reset_timestep  0
minimize        1.0e-12 1.0e-12 500 5000
Switching to 'neigh_modify every 1 delay 0 check yes' setting during minimization
Neighbor list info ...
  update: every = 1 steps, delay = 0 steps, check = yes
  max neighbors/atom: 2000, page size: 100000
  master list distance cutoff = 7.50679
  ghost atom cutoff = 7.50679
  binsize = 3.753395, bins = 16 16 16
  1 neighbor lists, perpetual/occasional/extra = 1 0 0
  (1) pair eam/alloy, perpetual
      attributes: half, newton on
      pair build: half/bin/atomonly/newton
      stencil: half/bin/3d
      bin: standard
WARNING: A per-atom density exceeded rhomax of EAM potential table - a linear extrapolation to the energy was made (src/MANYBODY/pair_eam.cpp:335)
Per MPI rank memory allocation (min/avg/max) = 17.47 | 17.47 | 17.47 Mbytes
   Step          Temp          E_pair         E_mol          TotEng         Press     
         0   0             -26373.138      0             -26373.138      419341.13    
       500   0             -62561.856      0             -62561.856     -4325.6636    
Loop time of 34.5436 on 1 procs for 500 steps with 17939 atoms

86.1% CPU use with 1 MPI tasks x no OpenMP threads

Minimization stats:
  Stopping criterion = max iterations
  Energy initial, next-to-last, final = 
     -26373.1382169928  -62561.6663618975  -62561.8558162963
  Force two-norm initial, final = 30496.086 1.6328063
  Force max component initial, final = 8615.757 0.38365446
  Final line search alpha, max atom move = 0.21996296 0.08438977
  Iterations, force evaluations = 500 724

MPI task timing breakdown:
Section |  min time  |  avg time  |  max time  |%varavg| %total
---------------------------------------------------------------
Pair    | 32.064     | 32.064     | 32.064     |   0.0 | 92.82
Neigh   | 1.7757     | 1.7757     | 1.7757     |   0.0 |  5.14
Comm    | 0.11509    | 0.11509    | 0.11509    |   0.0 |  0.33
Output  | 0.00095667 | 0.00095667 | 0.00095667 |   0.0 |  0.00
Modify  | 0          | 0          | 0          |   0.0 |  0.00
Other   |            | 0.5876     |            |       |  1.70

Nlocal:          17939 ave       17939 max       17939 min
Histogram: 1 0 0 0 0 0 0 0 0 0
Nghost:          17211 ave       17211 max       17211 min
Histogram: 1 0 0 0 0 0 0 0 0 0
Neighs:     1.2899e+06 ave  1.2899e+06 max  1.2899e+06 min
Histogram: 1 0 0 0 0 0 0 0 0 0

Total # of neighbors = 1289899
Ave neighs/atom = 71.904733
Neighbor list builds = 34
Dangerous builds = 0

variable        T equal ${temp}
variable        T equal 1
velocity        all create ${T} 492845 rot yes dist gaussian
velocity        all create 1 492845 rot yes dist gaussian

fix             eq all npt temp ${T} ${T} 0.1 iso 0 0 1
fix             eq all npt temp 1 ${T} 0.1 iso 0 0 1
fix             eq all npt temp 1 1 0.1 iso 0 0 1
thermo          500
thermo_style    custom step temp pe press lx ly lz
run             10000
Per MPI rank memory allocation (min/avg/max) = 14.47 | 14.47 | 14.47 Mbytes
   Step          Temp          PotEng         Press            Lx             Ly             Lz      
       500   1             -62561.856     -4314.1978      60             60             60           
      1000   1.4341522     -62564.424      11.469128      59.935304      59.935304      59.935304    
      1500   1.298296      -62567.294     -0.89090168     59.934287      59.934287      59.934287    
      2000   1.0963395     -62569.073      0.12147181     59.933282      59.933282      59.933282    
      2500   1.0550476     -62570.881     -0.022919965    59.932697      59.932697      59.932697    
      3000   1.1815502     -62573.438     -0.0061657126   59.931566      59.931566      59.931566    
      3500   1.1345256     -62575.434     -0.0024482296   59.930457      59.930457      59.930457    
      4000   1.0670801     -62577.613     -0.0058278343   59.929523      59.929523      59.929523    
      4500   1.1870612     -62579.815     -0.0099073511   59.928675      59.928675      59.928675    
      5000   1.1315541     -62582.424     -0.0018897484   59.927245      59.927245      59.927245    
      5500   1.169582      -62584.692     -0.0050494376   59.926188      59.926188      59.926188    
      6000   1.1946638     -62587.389     -0.0014153204   59.925067      59.925067      59.925067    
      6500   1.06255       -62589.158     -0.0030780898   59.924674      59.924674      59.924674    
      7000   1.0796541     -62591.307      0.0013882653   59.92379       59.92379       59.92379     
      7500   0.98509016    -62592.154      0.0036879412   59.923268      59.923268      59.923268    
      8000   1.0243131     -62592.267     -0.0014809201   59.923528      59.923528      59.923528    
      8500   1.022562      -62593.622      0.0012231806   59.923442      59.923442      59.923442    
      9000   0.97941793    -62594.473     -0.0039288047   59.923223      59.923223      59.923223    
      9500   1.0053678     -62594.88       0.0052403367   59.92259       59.92259       59.92259     
     10000   1.0351654     -62595.713     -0.0039648212   59.922645      59.922645      59.922645    
     10500   1.0020166     -62597.126      0.0048197456   59.922187      59.922187      59.922187    
Loop time of 300.492 on 1 procs for 10000 steps with 17939 atoms

Performance: 2.875 ns/day, 8.347 hours/ns, 33.279 timesteps/s, 596.987 katom-step/s
93.9% CPU use with 1 MPI tasks x no OpenMP threads

MPI task timing breakdown:
Section |  min time  |  avg time  |  max time  |%varavg| %total
---------------------------------------------------------------
Pair    | 293.27     | 293.27     | 293.27     |   0.0 | 97.60
Neigh   | 1.1181     | 1.1181     | 1.1181     |   0.0 |  0.37
Comm    | 0.82984    | 0.82984    | 0.82984    |   0.0 |  0.28
Output  | 0.0074123  | 0.0074123  | 0.0074123  |   0.0 |  0.00
Modify  | 4.8493     | 4.8493     | 4.8493     |   0.0 |  1.61
Other   |            | 0.4145     |            |       |  0.14

Nlocal:          17939 ave       17939 max       17939 min
Histogram: 1 0 0 0 0 0 0 0 0 0
Nghost:          17213 ave       17213 max       17213 min
Histogram: 1 0 0 0 0 0 0 0 0 0
Neighs:    1.29437e+06 ave 1.29437e+06 max 1.29437e+06 min
Histogram: 1 0 0 0 0 0 0 0 0 0

Total # of neighbors = 1294374
Ave neighs/atom = 72.154189
Neighbor list builds = 24
Dangerous builds = 0
unfix           eq

variable        L0 equal lx
print           "L0=${L0} T=${T} material=${material}"
L0=59.9221865864289 T=1 material=Cu

reset_timestep  0
fix             1 all npt temp ${T} ${T} 0.1 y 0 0 1 z 0 0 1 drag 1.0
fix             1 all npt temp 1 ${T} 0.1 y 0 0 1 z 0 0 1 drag 1.0
fix             1 all npt temp 1 1 0.1 y 0 0 1 z 0 0 1 drag 1.0
variable        erate equal 1.0e9
variable        erate_ps equal "v_erate/1.0e12"
fix             2 all deform 1 x erate ${erate_ps} units box remap x
fix             2 all deform 1 x erate 0.001 units box remap x

variable        strain equal "(lx - v_L0)/v_L0"
variable        sxx equal "-pxx/10000"
variable        syy equal "-pyy/10000"
variable        szz equal "-pzz/10000"
fix             out all print 200 "${strain} ${sxx} ${syy} ${szz}" file stress_strain.dat screen no

dump            1 all custom 2000 dump_tension.lammpstrj id type x y z
dump_modify     1 element ${elem} sort id
dump_modify     1 element Cu sort id

thermo          500
thermo_style    custom step v_strain temp press pxx pyy pzz ke pe
run             30000
Per MPI rank memory allocation (min/avg/max) = 14.47 | 14.47 | 14.47 Mbytes
   Step        v_strain         Temp          Press           Pxx            Pyy            Pzz           KinEng         PotEng    
         0  -8.30043e-16    1.0020166      0.0048197456  -281.62608      979.3832      -697.74266      2.3233443     -62597.126    
       500  -7.1110987e-16  1.0918738     -270.32513     -824.87166      15.288437     -1.3921812      2.5316935     -62597.676    
      1000  -3.5537734e-16  1.0511444     -332.43536     -1000.1034     -14.08945       16.886814      2.4372554     -62598.002    
      1500  -1.1839997e-16  1.1782458     -592.36605     -1776.7583     -5.9410039      5.6011209      2.7319615     -62598.819    
      2000   0              1.3013893     -612.12199     -1834.8032      3.7754101     -5.3382235      3.0174904     -62599.857    
      2500   3.548456e-16   1.2321086     -641.95805     -1924.124       3.2991667     -5.0493764      2.8568514     -62600.524    
      3000   5.9111451e-16  1.3039978     -857.97931     -2572.5905     -2.3083085      0.96088854     3.0235386     -62601.749    
      3500   8.2714798e-16  1.3141588     -1029.8265     -3088.6386     -3.3868791      2.5460686      3.0470986     -62603.18     
      4000  -5.9052575e-16  1.1888619     -1243.7855     -3730.8995      0.13926145    -0.59625042     2.7565767     -62603.705    
      4500  -3.5413909e-16  1.2353876     -1445.1498     -4335.2762      1.7589961     -1.9320136      2.8644544     -62604.306    
      5000  -1.1798763e-16  1.350004      -1555.4689     -4666.5461      0.44839789    -0.30901364     3.1302118     -62605.373    
      5500   1.1792896e-16  1.2242633     -1604.7365     -4814.4921     -0.90890145     1.1914788      2.8386608     -62605.772    
      6000   3.5361105e-16  1.3078389     -1630.6975     -4892.3784     -0.22473633     0.51064718     3.0324448     -62606.628    
      6500   5.8905897e-16  1.3819949     -1759.8719     -5279.7834      0.68446046    -0.51684152     3.204388      -62607.788    
      7000  -8.2427309e-16  1.2532432     -1814.1109     -5442.4842      0.48587399    -0.33426501     2.9058554     -62608.422    
      7500  -5.884743e-16   1.1702515     -1903.3494     -5710.1517     -0.28946099     0.39304012     2.7134252     -62608.771    
      8000  -3.5290944e-16  1.0533881     -2017.8207     -6053.4802     -0.21142141     0.22967172     2.4424577     -62608.64     
      8500  -1.1757816e-16  1.1408307     -2145.3166     -6435.9124      0.09077822    -0.12816816     2.6452081     -62608.869    
      9000   2.3503978e-16  1.0506994     -2258.7883     -6776.296       0.11786397    -0.18675362     2.4362237     -62608.799    
      9500   3.5238506e-16  1.1305215     -2361.7251     -7085.1272     -0.061540072    0.013392005    2.6213046     -62609        
     10000   5.8701768e-16  1.0833908     -2444.4336     -7333.2384     -0.072389755    0.0098898457   2.512024      -62608.889    
     10500  -7.0407267e-16  1.1451738     -2556.6308     -7669.8208     -0.044601172   -0.027166459    2.6552785     -62609.003    
     11000  -5.8643705e-16  1.2233266     -2685.0239     -8055.0267      0.06848261    -0.11358168     2.8364889     -62609.651    
     11500  -3.516883e-16   1.0847359     -2846.1088     -8538.287      -0.044181763    0.0047674739   2.515143      -62609.44     
     12000   0              1.0719385     -2964.892      -8894.657      -0.064553012    0.045659187    2.4854701     -62609.233    
     12500   1.1711365e-16  1.0893139     -2994.5962     -8983.8135      0.013894625    0.01112015     2.5257578     -62609.043    
     13000   3.5116754e-16  1.268403      -3122.3671     -9367.0686      0.010516868   -0.043152141    2.9410061     -62609.502    
     13500   7.0198858e-16  1.149889      -3186.3063     -9558.9124      0.010222163   -0.016810714    2.6662115     -62609.629    
     14000  -8.1858284e-16  1.2391763     -3277.8228     -9833.4608     -0.044046732    0.036362055    2.873239      -62610.08     
     14500  -5.8441386e-16  1.244527      -3370.6563     -10111.969      0.045533106   -0.045440978    2.8856456     -62610.539    
     15000  -2.3365039e-16  1.1455898     -3543.3223     -10629.98      -0.010896485    0.024283141    2.6562429     -62610.481    
     15500  -1.1676767e-16  1.1917348     -3627.0948     -10881.278     -0.0056517791  -0.00078471559  2.7632379     -62610.649    
     16000   2.3342042e-16  1.1447947     -3757.0067     -11270.986     -0.05144947     0.017373852    2.6543995     -62610.481    
     16500   4.666112e-16   1.2197296     -3795.97       -11387.899      0.012699649   -0.023397919    2.8281485     -62610.815    
     17000   5.8297724e-16  1.2885387     -3757.8423     -11273.545      0.034918195   -0.017350554    2.9876941     -62611.278    
     17500  -6.9922892e-16  1.4089493     -3990.8474     -11972.514     -0.048255938    0.020511864    3.2668862     -62612.271    
     18000  -4.6592366e-16  1.3071826     -4059.4851     -12178.428     -0.0075826928  -0.019775605    3.0309231     -62612.627    
     18500  -3.492712e-16   1.2812077     -4084.974      -12254.915      0.033611848   -0.04033372     2.970696      -62612.861    
     19000   0              1.085276      -4159.2063     -12477.601      0.022058675   -0.040281436    2.5163953     -62612.407    
     19500   2.3261907e-16  1.0955109     -4252.6233     -12757.848     -0.013879412   -0.0078727389   2.5401265     -62611.974    
     20000   3.4875756e-16  1.2129191     -4276.7846     -12830.362     -0.060578722    0.068396949    2.8123574     -62612.212    
     20500   6.9717337e-16  1.1349446     -4397.3491     -13192.037     -0.039925839    0.029819129    2.6315602     -62611.91     
     21000  -6.9683196e-16  1.2009929     -4549.8221     -13649.454     -0.078260078    0.065724371    2.7847043     -62611.813    
     21500  -5.8040906e-16  1.1236397     -4638.4688     -13915.385      0.01506032    -0.036657884    2.6053479     -62611.363    
     22000  -2.3205004e-16  1.1098216     -4772.8861     -14318.636      0.023456278   -0.045955365    2.5733083     -62611.012    
     22500   0              1.0275096     -4881.5487     -14644.643      0.0029713031  -0.006428259    2.3824542     -62610.181    
     23000   2.3182321e-16  1.068076      -4883.9001     -14651.706     -0.013818509    0.019226233    2.4765141     -62609.487    
     23500   4.6341992e-16  1.000396      -5018.6094     -15055.803      0.059517171   -0.084545073    2.3195866     -62608.594    
     24000   6.9479046e-16  1.1569364     -5102.0761     -15306.229      0.027944048   -0.027622839    2.682552      -62608.3      
     24500  -6.9445137e-16  1.1456262     -5182.5259     -15547.555     -0.007760851   -0.015364899    2.6563274     -62608.046    
     25000  -4.6274174e-16  1.1960134     -5323.279      -15969.813     -0.075612592    0.051197669    2.7731587     -62607.813    
     25500  -2.3125806e-16  1.0990053     -5359.6274     -16078.892      0.0010839898   0.0080938215   2.548229      -62607.143    
     26000   0              1.0934836     -5460.0943     -16380.271      0.0029574069  -0.014889804    2.5354259     -62606.547    
     26500   2.3103277e-16  1.0846548     -5506.4327     -16519.301      0.023706119   -0.021157334    2.5149548     -62605.878    
     27000   4.6184059e-16  1.0392778     -5649.7536     -16949.248     -0.045736637    0.032879988    2.4097407     -62605.139    
     27500   6.9242377e-16  1.1217499     -5799.9955     -17399.996     -0.033318355    0.043091238    2.600966      -62604.621    
     28000  -6.9208699e-16  1.0704283     -5902.6875     -17708.04      -0.026814062    0.0047336154   2.4819683     -62603.787    
     28500  -4.6116703e-16  1.2272826     -5892.5317     -17677.598     -0.0078045904   0.011154131    2.8456615     -62603.58     
     29000  -2.3047147e-16  1.177404      -5948.3106     -17844.951      0.020618079   -0.0018067336   2.7300095     -62603.135    
     29500   0              1.3134403     -6085.7595     -18257.278      0.019620304   -0.02037402     3.0454326     -62603.262    
     30000   3.4537157e-16  1.164884      -6141.5974     -18424.778     -0.011787883   -0.0023313436   2.7009798     -62602.683    
Loop time of 572.783 on 1 procs for 30000 steps with 17939 atoms

Performance: 4.525 ns/day, 5.304 hours/ns, 52.376 timesteps/s, 939.570 katom-step/s
97.5% CPU use with 1 MPI tasks x no OpenMP threads

MPI task timing breakdown:
Section |  min time  |  avg time  |  max time  |%varavg| %total
---------------------------------------------------------------
Pair    | 556.45     | 556.45     | 556.45     |   0.0 | 97.15
Neigh   | 1.4502     | 1.4502     | 1.4502     |   0.0 |  0.25
Comm    | 1.5154     | 1.5154     | 1.5154     |   0.0 |  0.26
Output  | 0.15002    | 0.15002    | 0.15002    |   0.0 |  0.03
Modify  | 12.396     | 12.396     | 12.396     |   0.0 |  2.16
Other   |            | 0.8269     |            |       |  0.14

Nlocal:          17939 ave       17939 max       17939 min
Histogram: 1 0 0 0 0 0 0 0 0 0
Nghost:          17194 ave       17194 max       17194 min
Histogram: 1 0 0 0 0 0 0 0 0 0
Neighs:    1.29472e+06 ave 1.29472e+06 max 1.29472e+06 min
Histogram: 1 0 0 0 0 0 0 0 0 0

Total # of neighbors = 1294724
Ave neighs/atom = 72.1737
Neighbor list builds = 50
Dangerous builds = 0

print           "Done."
Done.
Total wall time: 0:15:08
