 # Fcc Cu.
 CRYSTAL
 PRIMVEC
      3.61500000        0.00000000        0.00000000
      0.00000000        3.61500000        0.00000000
      0.00000000        0.00000000        3.61500000
 CONVVEC
      3.61500000        0.00000000        0.00000000
      0.00000000        3.61500000        0.00000000
      0.00000000        0.00000000        3.61500000
 PRIMCOORD
        4 1
29        0.00000000        0.00000000        0.00000000
29        1.80750000        1.80750000        0.00000000
29        0.00000000        1.80750000        1.80750000
29        1.80750000        0.00000000        1.80750000
