LAMMPS (22 Jul 2025 - Update 4)
# Одноосное растяжение поликристалла
# Обязательные -var: temp datafile potfile elem material

units           metal
atom_style      atomic
boundary        p p p

read_data       ${datafile}
read_data       /Users/danilavertiy/Downloads/atomsk-polycrystal-tension/models/Al_poly.data
Reading data file ...
  orthogonal box = (0 0 0) to (60 60 60)
  1 by 1 by 1 MPI processor grid
  reading atoms ...
  12790 atoms
  read_data CPU = 0.020 seconds

pair_style      eam/alloy
pair_coeff      * * ${potfile} ${elem}
pair_coeff      * * /Users/danilavertiy/Downloads/atomsk-polycrystal-tension/potentials/Al_zhou.eam.alloy ${elem}
pair_coeff      * * /Users/danilavertiy/Downloads/atomsk-polycrystal-tension/potentials/Al_zhou.eam.alloy Al
Reading eam/alloy potential file /Users/danilavertiy/Downloads/atomsk-polycrystal-tension/potentials/Al_zhou.eam.alloy with DATE: 2007-10-12

neighbor        2.0 bin
neigh_modify    delay 10 every 1

timestep        0.001

reset_timestep  0
minimize        1.0e-12 1.0e-12 500 5000
Switching to 'neigh_modify every 1 delay 0 check yes' setting during minimization
Neighbor list info ...
  update: every = 1 steps, delay = 0 steps, check = yes
  max neighbors/atom: 2000, page size: 100000
  master list distance cutoff = 12.1025
  ghost atom cutoff = 12.1025
  binsize = 6.05125, bins = 10 10 10
  1 neighbor lists, perpetual/occasional/extra = 1 0 0
  (1) pair eam/alloy, perpetual
      attributes: half, newton on
      pair build: half/bin/atomonly/newton
      stencil: half/bin/3d
      bin: standard
Per MPI rank memory allocation (min/avg/max) = 23.03 | 23.03 | 23.03 Mbytes
   Step          Temp          E_pair         E_mol          TotEng         Press     
         0   0             -40955.556      0             -40955.556      68182.616    
       500   0             -45315.482      0             -45315.482      23504.443    
Loop time of 41.2407 on 1 procs for 500 steps with 12790 atoms

99.4% CPU use with 1 MPI tasks x no OpenMP threads

Minimization stats:
  Stopping criterion = max iterations
  Energy initial, next-to-last, final = 
     -40955.5563016907   -45315.456735025  -45315.4819575211
  Force two-norm initial, final = 917.05532 0.38125013
  Force max component initial, final = 193.45198 0.15901509
  Final line search alpha, max atom move = 1 0.15901509
  Iterations, force evaluations = 500 730

MPI task timing breakdown:
Section |  min time  |  avg time  |  max time  |%varavg| %total
---------------------------------------------------------------
Pair    | 39.24      | 39.24      | 39.24      |   0.0 | 95.15
Neigh   | 1.746      | 1.746      | 1.746      |   0.0 |  4.23
Comm    | 0.05223    | 0.05223    | 0.05223    |   0.0 |  0.13
Output  | 9.1667e-05 | 9.1667e-05 | 9.1667e-05 |   0.0 |  0.00
Modify  | 0          | 0          | 0          |   0.0 |  0.00
Other   |            | 0.2025     |            |       |  0.49

Nlocal:          12790 ave       12790 max       12790 min
Histogram: 1 0 0 0 0 0 0 0 0 0
Nghost:          22557 ave       22557 max       22557 min
Histogram: 1 0 0 0 0 0 0 0 0 0
Neighs:    2.78132e+06 ave 2.78132e+06 max 2.78132e+06 min
Histogram: 1 0 0 0 0 0 0 0 0 0

Total # of neighbors = 2781320
Ave neighs/atom = 217.46052
Neighbor list builds = 34
Dangerous builds = 0

variable        T equal ${temp}
variable        T equal 300
velocity        all create ${T} 492845 rot yes dist gaussian
velocity        all create 300 492845 rot yes dist gaussian

fix             eq all npt temp ${T} ${T} 0.1 iso 0 0 1
fix             eq all npt temp 300 ${T} 0.1 iso 0 0 1
fix             eq all npt temp 300 300 0.1 iso 0 0 1
thermo          500
thermo_style    custom step temp pe press lx ly lz
run             10000
Per MPI rank memory allocation (min/avg/max) = 20.04 | 20.04 | 20.04 Mbytes
   Step          Temp          PotEng         Press            Lx             Ly             Lz      
       500   300           -45315.482      25956.823      60             60             60           
      1000   209.00753     -44991.542      166.32891      60.888134      60.888134      60.888134    
      1500   299.48539     -44816.301     -396.73507      61.061177      61.061177      61.061177    
      2000   294.23266     -44823.207      261.67827      61.037334      61.037334      61.037334    
      2500   301.5553      -44804.875     -24.32261       61.059398      61.059398      61.059398    
      3000   302.67851     -44810.564     -175.33093      61.058121      61.058121      61.058121    
      3500   295.26637     -44821.895      178.39585      61.03528       61.03528       61.03528     
      4000   298.98989     -44815.952      215.55335      61.040907      61.040907      61.040907    
      4500   302.6753      -44817.995     -61.169381      61.04538       61.04538       61.04538     
      5000   299.53877     -44822.888      273.71469      61.028695      61.028695      61.028695    
      5500   299.03562     -44827.783      100.09673      61.037469      61.037469      61.037469    
      6000   296.9969      -44827.256     -323.39606      61.046648      61.046648      61.046648    
      6500   300.93066     -44824.319      274.76325      61.031958      61.031958      61.031958    
      7000   297.19482     -44827.293      128.22962      61.033544      61.033544      61.033544    
      7500   298.72107     -44835.478     -521.40337      61.047086      61.047086      61.047086    
      8000   301.75239     -44828.42      -269.30606      61.046386      61.046386      61.046386    
      8500   300.89385     -44832.448      301.66328      61.021193      61.021193      61.021193    
      9000   296.21297     -44838.058      61.952426      61.023401      61.023401      61.023401    
      9500   299.11146     -44837.941     -254.97214      61.0341        61.0341        61.0341      
     10000   302.32603     -44846.037     -111.07209      61.022235      61.022235      61.022235    
     10500   298.76952     -44847.937      447.77721      61.000251      61.000251      61.000251    
Loop time of 478.687 on 1 procs for 10000 steps with 12790 atoms

Performance: 1.805 ns/day, 13.297 hours/ns, 20.890 timesteps/s, 267.189 katom-step/s
99.4% CPU use with 1 MPI tasks x no OpenMP threads

MPI task timing breakdown:
Section |  min time  |  avg time  |  max time  |%varavg| %total
---------------------------------------------------------------
Pair    | 471.24     | 471.24     | 471.24     |   0.0 | 98.44
Neigh   | 4.4968     | 4.4968     | 4.4968     |   0.0 |  0.94
Comm    | 0.56973    | 0.56973    | 0.56973    |   0.0 |  0.12
Output  | 0.001764   | 0.001764   | 0.001764   |   0.0 |  0.00
Modify  | 2.2045     | 2.2045     | 2.2045     |   0.0 |  0.46
Other   |            | 0.177      |            |       |  0.04

Nlocal:          12790 ave       12790 max       12790 min
Histogram: 1 0 0 0 0 0 0 0 0 0
Nghost:          22022 ave       22022 max       22022 min
Histogram: 1 0 0 0 0 0 0 0 0 0
Neighs:    2.64122e+06 ave 2.64122e+06 max 2.64122e+06 min
Histogram: 1 0 0 0 0 0 0 0 0 0

Total # of neighbors = 2641217
Ave neighs/atom = 206.50641
Neighbor list builds = 108
Dangerous builds = 0
unfix           eq

variable        L0 equal lx
print           "L0=${L0} T=${T} material=${material}"
L0=61.0002505141214 T=300 material=Al

reset_timestep  0
fix             1 all npt temp ${T} ${T} 0.1 y 0 0 1 z 0 0 1 drag 1.0
fix             1 all npt temp 300 ${T} 0.1 y 0 0 1 z 0 0 1 drag 1.0
fix             1 all npt temp 300 300 0.1 y 0 0 1 z 0 0 1 drag 1.0
variable        erate equal 1.0e9
variable        erate_ps equal "v_erate/1.0e12"
fix             2 all deform 1 x erate ${erate_ps} units box remap x
fix             2 all deform 1 x erate 0.001 units box remap x

variable        strain equal "(lx - v_L0)/v_L0"
variable        sxx equal "-pxx/10000"
variable        syy equal "-pyy/10000"
variable        szz equal "-pzz/10000"
fix             out all print 200 "${strain} ${sxx} ${syy} ${szz}" file stress_strain.dat screen no

dump            1 all custom 2000 dump_tension.lammpstrj id type x y z
dump_modify     1 element ${elem} sort id
dump_modify     1 element Al sort id

thermo          500
thermo_style    custom step v_strain temp press pxx pyy pzz ke pe
run             30000
Per MPI rank memory allocation (min/avg/max) = 20.04 | 20.04 | 20.04 Mbytes
   Step        v_strain         Temp          Press           Pxx            Pyy            Pzz           KinEng         PotEng    
         0   4.6592775e-16  298.76952      447.77721      179.05326      442.09906      722.17932      493.89828     -44847.937    
       500  -2.3284745e-16  298.43848      380.6203       104.2862       460.9587       576.61599      493.35104     -44842.171    
      1000   6.9819343e-16  300.56215     -8.8628347     -329.91262      35.105099      268.21902      496.8617      -44845.889    
      1500   0              299.72663     -298.75949     -762.24033     -1.7166027     -132.32155      495.4805      -44848.514    
      2000  -5.8124719e-16  304.17596     -606.18382     -1243.6973     -136.75985     -438.09431      502.83571     -44857.502    
      2500   4.6476583e-16  299.24058     -607.39835     -987.14068     -368.82689     -466.22749      494.677       -44853.39     
      3000  -1.1613354e-16  300.82977     -472.84128     -857.39331     -191.49909     -369.63143      497.30411     -44856.435    
      3500   8.1252971e-16  300.24103     -691.1345      -1408.4575     -477.8809      -187.06509      496.33085     -44857.27     
      4000   2.3203573e-16  300.03062     -375.33045     -1090.1219      211.28534     -247.15483      495.98302     -44857.142    
      4500  -5.7980058e-16  299.17683     -357.20493     -1117.8722      185.57678     -139.3194       494.57161     -44859.609    
      5000   4.636097e-16   302.00295     -448.9966      -1113.6689     -145.01012     -88.310784      499.24348     -44864.857    
      5500  -1.1584479e-16  298.67948     -197.73536     -715.16575     -9.5971845      131.55685      493.74944     -44860.103    
      6000  -6.9472328e-16  300.22766     -221.44747     -1053.5847      300.21852      89.023819      496.30875     -44863.798    
      6500   2.3145939e-16  300.78531     -212.39891     -1161.6224      129.6372       394.78848      497.2306      -44864.23     
      7000  -4.6268893e-16  302.96532     -159.62351     -1238.9454      285.51374      474.56115      500.83439     -44868.398    
      7500   5.7807413e-16  298.59819     -387.93779     -1448.6673      281.03648      3.8175008      493.61506     -44864.023    
      8000   0              298.75377     -529.48037     -1576.5207      208.93523     -220.85562      493.87224     -44864.575    
      8500  -6.9300111e-16  298.99122     -277.85815     -1462.1636      474.45853      154.13062      494.26478     -44863.347    
      9000   2.308859e-16   299.56488     -423.90843     -1640.2786      161.45499      207.09831      495.2131      -44864.939    
      9500  -3.4615732e-16  300.86011     -159.254       -1208.2203      280.97933      449.47895      497.35425     -44869.676    
     10000   5.7664325e-16  297.40894     -161.28249     -1428.2871      406.62788      537.81172      491.64909     -44863.969    
     10500   0              298.80809     -95.748694     -1340.7933      540.02197      513.52524      493.96204     -44866.618    
     11000  -5.7607288e-16  299.52576     -545.29677     -1620.0688     -126.05608      110.23453      495.14843     -44868.824    
     11500   3.4547287e-16  301.58125     -850.48183     -2079.817      -351.2955      -120.33296      498.54638     -44871.463    
     12000  -2.3020146e-16  299.91704     -829.62957     -2111.8361     -200.27741     -176.77517      495.79525     -44869.727    
     12500   5.7521944e-16  298.61507     -676.93148     -2015.31        199.88864     -215.37309      493.64296     -44868.079    
     13000   0              301.56522     -712.90784     -2189.4579      1.0445685      49.689788      498.51987     -44872.621    
     13500  -5.7465189e-16  299.74645     -797.85473     -2440.4428     -3.0260992      49.904729      495.51325     -44869.197    
     14000   4.5949482e-16  301.61639     -892.31918     -2377.4459     -175.70143     -123.81018      498.60447     -44872.504    
     14500  -2.2963418e-16  299.95637     -1153.4112     -2835.5513     -344.24716     -280.43507      495.86027     -44869.389    
     15000   8.0332371e-16  301.7709      -1104.8801     -2612.3883     -437.32177     -264.93023      498.85989     -44873.619    
     15500   1.1470402e-16  299.88247     -1248.4633     -2731.6262     -541.47315     -472.29042      495.7381      -44869.689    
     16000  -5.7323788e-16  301.28174     -1351.5698     -3037.985      -551.90159     -464.82297      498.05126     -44872.219    
     16500   4.5836473e-16  300.53889     -1172.3544     -3063.3096     -97.566359     -356.1873       496.82324     -44870.981    
     17000  -2.2906969e-16  299.95229     -1073.6886     -3118.7177      125.89119     -228.2393       495.85354     -44868.326    
     17500  -8.0134994e-16  300.01016     -913.91023     -2884.9691     -0.2083349      143.4467       495.94919     -44867.45     
     18000   1.1442234e-16  297.87381     -852.37487     -2846.2803      275.19518      13.960493      492.41757     -44867.79     
     18500  -4.5746465e-16  302.29466     -1004.9844     -2922.0856     -25.606417     -67.261209      499.72572     -44873.311    
     19000   5.7155023e-16  302.899       -553.09912     -2457.3269      287.20987      510.81964      500.72475     -44874.79     
     19500  -1.1425398e-16  301.89295     -800.81563     -2612.0896      51.924023      157.71868      499.06166     -44873.762    
     20000  -7.9938584e-16  303.65399     -707.51074     -2635.24        205.91295      306.79477      501.97283     -44875.252    
     20500   1.1414203e-16  300.471       -688.62543     -2852.757       405.86003      381.02067      496.71101     -44873.99     
     21000  -4.5634451e-16  297.28208     -830.56239     -2866.2715     -116.23961      490.82393      491.43939     -44869.354    
     21500   5.7015143e-16  300.45653     -1094.7512     -2923.7494     -338.31146     -22.192669      496.68709     -44873.915    
     22000   0              297.733       -1098.6332     -2967.9283     -243.03262     -84.938637      492.1848      -44871.441    
     22500  -6.8351259e-16  300.27642     -1173.7188     -3318.5212      168.62438     -371.25949      496.38935     -44876.81     
     23000   3.4158926e-16  300.7682      -944.16109     -2990.2529      339.00295     -181.23328      497.20231     -44877.325    
     23500  -3.4142239e-16  298.7677      -848.77602     -2705.4407      222.01768     -62.90501       493.89527     -44875.355    
     24000   6.8251135e-16  302.26354     -986.98936     -2992.4782      224.44889     -192.93881      499.67428     -44879.635    
     24500   0              300.35909     -778.12875     -2942.5969      476.23917      131.97144      496.52602     -44880.915    
     25000  -6.8184549e-16  298.06676     -654.5996      -2713.0613      266.29912      482.96335      492.73655     -44873.027    
     25500   3.4075652e-16  299.09695     -838.79738     -2948.8991      59.888731      372.61819      494.43956     -44876.723    
     26000  -3.4059046e-16  301.55086     -1444.5371     -3534.4768     -640.04325     -159.09134      498.49614     -44879.095    
     26500   6.8084912e-16  300.65128     -1197.4514     -3194.2802     -524.04362      125.96962      497.00903     -44879.658    
     27000   1.1341961e-16  302.45239     -1118.6541     -3411.5124      74.109215     -18.559034      499.98646     -44883.709    
     27500  -5.6682208e-16  298.82408     -1105.1579     -3227.4878      170.59685     -258.58278      493.98848     -44879.364    
     28000   3.3992783e-16  301.29698     -1438.5619     -3683.1357     -365.77428     -266.77577      498.07645     -44884.044    
     28500  -2.2650839e-16  299.45044     -1090.4114     -3373.8466      22.803121      79.809424      495.02392     -44883.961    
     29000   6.7919497e-16  300.70153     -943.39626     -3064.0216      133.939        99.893854      497.0921      -44888.649    
     29500   1.1314418e-16  301.8842      -624.83123     -2324.5137      432.10457      17.915404      499.04719     -44891.628    
     30000  -4.5235704e-16  299.50703     -1188.8895     -3320.7145     -162.45978     -83.49433       495.11746     -44889.29     
Loop time of 4818.52 on 1 procs for 30000 steps with 12790 atoms

Performance: 0.538 ns/day, 44.616 hours/ns, 6.226 timesteps/s, 79.630 katom-step/s
29.8% CPU use with 1 MPI tasks x no OpenMP threads

MPI task timing breakdown:
Section |  min time  |  avg time  |  max time  |%varavg| %total
---------------------------------------------------------------
Pair    | 4792.8     | 4792.8     | 4792.8     |   0.0 | 99.47
Neigh   | 14.673     | 14.673     | 14.673     |   0.0 |  0.30
Comm    | 1.8104     | 1.8104     | 1.8104     |   0.0 |  0.04
Output  | 0.11264    | 0.11264    | 0.11264    |   0.0 |  0.00
Modify  | 8.6016     | 8.6016     | 8.6016     |   0.0 |  0.18
Other   |            | 0.5672     |            |       |  0.01

Nlocal:          12790 ave       12790 max       12790 min
Histogram: 1 0 0 0 0 0 0 0 0 0
Nghost:          22009 ave       22009 max       22009 min
Histogram: 1 0 0 0 0 0 0 0 0 0
Neighs:     2.6423e+06 ave  2.6423e+06 max  2.6423e+06 min
Histogram: 1 0 0 0 0 0 0 0 0 0

Total # of neighbors = 2642300
Ave neighs/atom = 206.59109
Neighbor list builds = 331
Dangerous builds = 0

print           "Done."
Done.
Total wall time: 1:28:58
