LAMMPS (22 Jul 2025 - Update 4)
# Одноосное растяжение поликристалла
# Обязательные -var: temp datafile potfile elem material

units           metal
atom_style      atomic
boundary        p p p

read_data       ${datafile}
read_data       /Users/danilavertiy/Downloads/atomsk-polycrystal-tension/models/Cu_poly.data
Reading data file ...
  orthogonal box = (0 0 0) to (60 60 60)
  1 by 1 by 1 MPI processor grid
  reading atoms ...
  17939 atoms
  read_data CPU = 0.029 seconds

pair_style      eam/alloy
pair_coeff      * * ${potfile} ${elem}
pair_coeff      * * /Users/danilavertiy/Downloads/atomsk-polycrystal-tension/potentials/Cu_mishin1.eam.alloy ${elem}
pair_coeff      * * /Users/danilavertiy/Downloads/atomsk-polycrystal-tension/potentials/Cu_mishin1.eam.alloy Cu
Reading eam/alloy potential file /Users/danilavertiy/Downloads/atomsk-polycrystal-tension/potentials/Cu_mishin1.eam.alloy with DATE: 2007-10-12

neighbor        2.0 bin
neigh_modify    delay 10 every 1

timestep        0.001

reset_timestep  0
minimize        1.0e-12 1.0e-12 500 5000
Switching to 'neigh_modify every 1 delay 0 check yes' setting during minimization
Neighbor list info ...
  update: every = 1 steps, delay = 0 steps, check = yes
  max neighbors/atom: 2000, page size: 100000
  master list distance cutoff = 7.50679
  ghost atom cutoff = 7.50679
  binsize = 3.753395, bins = 16 16 16
  1 neighbor lists, perpetual/occasional/extra = 1 0 0
  (1) pair eam/alloy, perpetual
      attributes: half, newton on
      pair build: half/bin/atomonly/newton
      stencil: half/bin/3d
      bin: standard
WARNING: A per-atom density exceeded rhomax of EAM potential table - a linear extrapolation to the energy was made (src/MANYBODY/pair_eam.cpp:335)
Per MPI rank memory allocation (min/avg/max) = 17.47 | 17.47 | 17.47 Mbytes
   Step          Temp          E_pair         E_mol          TotEng         Press     
         0   0             -26373.138      0             -26373.138      419341.13    
       500   0             -62561.856      0             -62561.856     -4325.6636    
Loop time of 16.0272 on 1 procs for 500 steps with 17939 atoms

99.0% CPU use with 1 MPI tasks x no OpenMP threads

Minimization stats:
  Stopping criterion = max iterations
  Energy initial, next-to-last, final = 
     -26373.1382169928  -62561.6663618975  -62561.8558162963
  Force two-norm initial, final = 30496.086 1.6328063
  Force max component initial, final = 8615.757 0.38365446
  Final line search alpha, max atom move = 0.21996296 0.08438977
  Iterations, force evaluations = 500 724

MPI task timing breakdown:
Section |  min time  |  avg time  |  max time  |%varavg| %total
---------------------------------------------------------------
Pair    | 14.741     | 14.741     | 14.741     |   0.0 | 91.97
Neigh   | 0.95254    | 0.95254    | 0.95254    |   0.0 |  5.94
Comm    | 0.045652   | 0.045652   | 0.045652   |   0.0 |  0.28
Output  | 0.00013012 | 0.00013012 | 0.00013012 |   0.0 |  0.00
Modify  | 0          | 0          | 0          |   0.0 |  0.00
Other   |            | 0.2883     |            |       |  1.80

Nlocal:          17939 ave       17939 max       17939 min
Histogram: 1 0 0 0 0 0 0 0 0 0
Nghost:          17211 ave       17211 max       17211 min
Histogram: 1 0 0 0 0 0 0 0 0 0
Neighs:     1.2899e+06 ave  1.2899e+06 max  1.2899e+06 min
Histogram: 1 0 0 0 0 0 0 0 0 0

Total # of neighbors = 1289899
Ave neighs/atom = 71.904733
Neighbor list builds = 34
Dangerous builds = 0

variable        T equal ${temp}
variable        T equal 300
velocity        all create ${T} 492845 rot yes dist gaussian
velocity        all create 300 492845 rot yes dist gaussian

fix             eq all npt temp ${T} ${T} 0.1 iso 0 0 1
fix             eq all npt temp 300 ${T} 0.1 iso 0 0 1
fix             eq all npt temp 300 300 0.1 iso 0 0 1
thermo          500
thermo_style    custom step temp pe press lx ly lz
run             10000
Per MPI rank memory allocation (min/avg/max) = 14.47 | 14.47 | 14.47 Mbytes
   Step          Temp          PotEng         Press            Lx             Ly             Lz      
       500   300           -62561.856     -885.92639      60             60             60           
      1000   219.88134     -62044.997     -867.32522      60.169015      60.169015      60.169015    
      1500   302.46875     -61845.449     -634.97708      60.253201      60.253201      60.253201    
      2000   294.90861     -61878.585      128.93313      60.226549      60.226549      60.226549    
      2500   297.87748     -61871.647     -102.83154      60.233925      60.233925      60.233925    
      3000   304.16471     -61866.079     -252.53465      60.23821       60.23821       60.23821     
      3500   300.73491     -61876.829      244.95414      60.224783      60.224783      60.224783    
      4000   295.8285      -61891.258      238.09763      60.218494      60.218494      60.218494    
      4500   299.36837     -61882.757     -185.40845      60.229805      60.229805      60.229805    
      5000   305.05178     -61884.432     -597.9369       60.23624       60.23624       60.23624     
      5500   300.68515     -61892.834      40.311881      60.220957      60.220957      60.220957    
      6000   297.68335     -61903.178      404.18046      60.211722      60.211722      60.211722    
      6500   300.49252     -61895.813     -161.91484      60.223955      60.223955      60.223955    
      7000   300.32666     -61896.264     -661.24884      60.229579      60.229579      60.229579    
      7500   298.36462     -61908.858      413.18982      60.209601      60.209601      60.209601    
      8000   299.10647     -61912.45       607.125        60.203866      60.203866      60.203866    
      8500   301.96457     -61907.641     -895.75654      60.229941      60.229941      60.229941    
      9000   301.68872     -61905.109     -432.02733      60.223227      60.223227      60.223227    
      9500   300.57005     -61915.88       621.42594      60.202417      60.202417      60.202417    
     10000   298.86851     -61921.302      116.47669      60.208772      60.208772      60.208772    
     10500   299.05938     -61918.905     -342.55618      60.21555       60.21555       60.21555     
Loop time of 188.315 on 1 procs for 10000 steps with 17939 atoms

Performance: 4.588 ns/day, 5.231 hours/ns, 53.103 timesteps/s, 952.608 katom-step/s
99.1% CPU use with 1 MPI tasks x no OpenMP threads

MPI task timing breakdown:
Section |  min time  |  avg time  |  max time  |%varavg| %total
---------------------------------------------------------------
Pair    | 183.32     | 183.32     | 183.32     |   0.0 | 97.35
Neigh   | 1.1436     | 1.1436     | 1.1436     |   0.0 |  0.61
Comm    | 0.49274    | 0.49274    | 0.49274    |   0.0 |  0.26
Output  | 0.0017572  | 0.0017572  | 0.0017572  |   0.0 |  0.00
Modify  | 3.111      | 3.111      | 3.111      |   0.0 |  1.65
Other   |            | 0.2405     |            |       |  0.13

Nlocal:          17939 ave       17939 max       17939 min
Histogram: 1 0 0 0 0 0 0 0 0 0
Nghost:          17102 ave       17102 max       17102 min
Histogram: 1 0 0 0 0 0 0 0 0 0
Neighs:    1.28884e+06 ave 1.28884e+06 max 1.28884e+06 min
Histogram: 1 0 0 0 0 0 0 0 0 0

Total # of neighbors = 1288840
Ave neighs/atom = 71.845699
Neighbor list builds = 45
Dangerous builds = 0
unfix           eq

variable        L0 equal lx
print           "L0=${L0} T=${T} material=${material}"
L0=60.215549906306 T=300 material=Cu

reset_timestep  0
fix             1 all npt temp ${T} ${T} 0.1 y 0 0 1 z 0 0 1 drag 1.0
fix             1 all npt temp 300 ${T} 0.1 y 0 0 1 z 0 0 1 drag 1.0
fix             1 all npt temp 300 300 0.1 y 0 0 1 z 0 0 1 drag 1.0
variable        erate equal 1.0e9
variable        erate_ps equal "v_erate/1.0e12"
fix             2 all deform 1 x erate ${erate_ps} units box remap x
fix             2 all deform 1 x erate 0.001 units box remap x

variable        strain equal "(lx - v_L0)/v_L0"
variable        sxx equal "-pxx/10000"
variable        syy equal "-pyy/10000"
variable        szz equal "-pzz/10000"
fix             out all print 200 "${strain} ${sxx} ${syy} ${szz}" file stress_strain.dat screen no

dump            1 all custom 2000 dump_tension.lammpstrj id type x y z
dump_modify     1 element ${elem} sort id
dump_modify     1 element Cu sort id

thermo          500
thermo_style    custom step v_strain temp press pxx pyy pzz ke pe
run             30000
Per MPI rank memory allocation (min/avg/max) = 14.48 | 14.48 | 14.48 Mbytes
   Step        v_strain         Temp          Press           Pxx            Pyy            Pzz           KinEng         PotEng    
         0   3.5399962e-16  299.05938     -342.55618     -1138.0101      1391.4004     -1281.0588      693.41956     -61918.905    
       500  -4.7176362e-16  301.60081     -782.10627     -1719.3237     -631.64542      4.6503398      699.3123      -61922.236    
      1000   4.7152797e-16  300.75203     -939.36656     -1945.2061     -541.38908     -331.50453      697.34426     -61921.987    
      1500  -3.5346942e-16  300.21974     -569.4214      -1459.0546      386.93135     -636.14097      696.11005     -61921.331    
      2000   4.7105738e-16  301.12995     -623.99562     -1584.5489      273.27246     -560.71037      698.22052     -61925.643    
      2500  -3.5311683e-16  300.83846     -434.33538     -1542.1353      122.57997      116.54915      697.54466     -61926.503    
      3000   7.058816e-16   300.54053     -856.98542     -2923.9969      214.14746      138.89321      696.85385     -61927.427    
      3500  -1.1758832e-16  302.19367     -1264.6819     -3508.6417      230.27129     -515.67541      700.68693     -61931.507    
      4000   8.2270829e-16  299.4591      -1181.6536     -3652.8348     -275.47299      383.34701      694.34639     -61925.819    
      4500   0              297.98039     -1674.8947     -4463.0413     -91.714463     -469.9282       690.91773     -61921.38     
      5000  -8.2188968e-16  299.65645     -1388.2623     -4185.1529     -325.15371      345.51966      694.80395     -61924.014    
      5500   1.1735443e-16  300.99288     -1177.1897     -3249.5966      197.38382     -479.35629      697.9027      -61930.461    
      6000  -7.0377659e-16  301.2097      -1464.5501     -4178.6191     -337.90516      122.8741       698.40544     -61929.796    
      6500   1.1723783e-16  299.71771     -1877.5235     -4857.6062     -605.11314     -169.85101      694.94601     -61927.35     
      7000  -7.0307771e-16  301.40438     -1171.6485     -4614.726       692.33582      407.44476      698.85685     -61930.229    
      7500   1.1712146e-16  298.15017     -1785.0042     -5102.8282     -21.085637     -231.09879      691.31139     -61924.917    
      8000  -4.6825347e-16  297.75368     -1512.9868     -5416.0928      463.77184      413.36074      690.39207     -61925.822    
      8500   3.5101599e-16  296.89954     -1757.6688     -4976.9702     -181.52765     -114.50863      688.4116      -61923.543    
      9000  -3.5084205e-16  299.20741     -1116.4122     -4869.7454      456.74615      1063.7627      693.76278     -61929.009    
      9500   4.675577e-16   298.71966     -2473.0279     -6568.1605     -282.8451      -568.07802      692.63187     -61928.951    
     10000  -2.3366312e-16  300.39483     -1981.0752     -6099.4234      19.988615      136.20904      696.51601     -61933.458    
     10500   5.8386875e-16  300.23008     -1951.6998     -5973.9078      7.2764131      111.53187      696.13402     -61934.199    
     11000  -2.33432e-16    301.75691     -2832.6348     -7527.9093     -244.93704     -725.05808      699.67423     -61938.578    
     11500   5.8329152e-16  298.45102     -2312.6659     -6502.6787      100.82406     -536.14288      692.00897     -61931.347    
     12000  -2.3320133e-16  301.05547     -2048.1768     -6513.3979     -197.23006      566.09763      698.04783     -61936.602    
     12500   8.158016e-16   297.15701     -2366.9196     -7174.5012      94.412244     -20.669822      689.0086      -61927.484    
     13000   0              298.13951     -2213.342      -6706.5552      274.95831     -208.42903      691.28669     -61929.72     
     13500  -6.9856857e-16  300.45323     -2270.6824     -7360.4044      282.22159      266.13571      696.65143     -61936.303    
     14000   1.1637069e-16  299.74681     -2775.9274     -7740.524       7.758528      -595.01684      695.01348     -61934.396    
     14500  -6.9787999e-16  301.7708      -2531.4014     -7871.0182      110.45391      166.36007      699.70644     -61935.999    
     15000   2.3251207e-16  300.38785     -3179.4238     -8544.2644     -716.28862     -277.71824      696.49984     -61934.545    
     15500  -5.8099397e-16  299.22966     -2691.1142     -8086.5834     -283.42591      296.66672      693.81438     -61934.253    
     16000   2.3228322e-16  299.9898      -2641.5905     -7959.1572      526.71765     -492.33195      695.5769      -61933.859    
     16500  -5.804224e-16   300.63653     -3313.1414     -9519.408       138.21105     -558.22735      697.07644     -61935.938    
     17000   3.4808223e-16  299.73215     -2704.6348     -8821.0183     -287.02096      994.13492      694.9795      -61933.852    
     17500  -3.4791118e-16  299.8816      -3228.8989     -9399.14       -438.15819      150.60158      695.32602     -61932.906    
     18000   4.6365373e-16  300.98294     -2995.6697     -9347.6827      253.22921      107.44433      697.87966     -61937.009    
     18500  -2.3171306e-16  299.99101     -3434.7832     -9832.7495     -157.79331     -313.80681      695.57971     -61935.408    
     19000   5.789984e-16   300.61011     -3021.5599     -8895.6148      9.7569591     -178.82181      697.01519     -61938.278    
     19500  -1.1574289e-16  300.60176     -2877.8839     -8884.9434      268.417       -17.12525       696.99583     -61939.1      
     20000   6.9411691e-16  300.89653     -3674.9997     -9832.5679     -371.40559     -821.0255       697.6793      -61941.265    
     20500  -1.1562947e-16  299.15223     -2735.0727     -9266.6971      1078.9199     -17.441014      693.63484     -61935.943    
     21000   6.9343707e-16  300.81993     -3248.8699     -9915.143       12.907337      155.62588      697.50168     -61941.212    
     21500  -1.1551628e-16  299.18944     -3333.2024     -9816.2246      184.98632     -368.36904      693.72113     -61938.016    
     22000   8.0821832e-16  298.64831     -3547.9472     -10328.014     -673.29421      357.46623      692.46643     -61936.754    
     22500   1.154033e-16   301.9736      -3799.4005     -11401.33      -102.03961      105.1682       700.17666     -61943.258    
     23000  -5.7673448e-16  298.56694     -3683.129      -11402.498      229.57516      123.53606      692.27776     -61937.537    
     23500   2.3058109e-16  301.82453     -3521.8348     -10630.824     -537.70555      603.02502      699.83102     -61946.057    
     24000  -5.7617126e-16  301.05163     -3322.8954     -10311.108      620.33317     -277.91131      698.03892     -61945.745    
     24500   3.4553404e-16  298.83351     -3252.494      -10606.762      54.435689      794.84422      692.89583     -61941.432    
     25000  -4.6048732e-16  298.54012     -3852.2064     -11547.121     -145.85967      136.36177      692.21558     -61941.6      
     25500   3.451971e-16   300.93132     -4057.2701     -11532.052      334.49209     -974.25019      697.75996     -61943.525    
     26000  -4.600385e-16   297.52994     -3807.7491     -11261.111     -234.08354      71.947005      689.87329     -61940.642    
     26500   4.5981442e-16  299.04231     -3689.3663     -11422.386      8.9000211      345.38751      693.37998     -61941.556    
     27000  -3.4469292e-16  299.83533     -4273.2179     -12552.322     -213.51647     -53.814889      695.21873     -61944.714    
     27500   4.5936691e-16  300.8724      -4240.7983     -12575.39       344.09498     -491.09968      697.62334     -61947.929    
     28000  -1.1478587e-16  298.65667     -4031.7808     -12090.319     -27.22907       22.205908      692.48581     -61942.605    
     28500   6.8838041e-16  300.39986     -3801.1047     -11743.749      57.501525      282.93318      696.5277      -61945.179    
     29000   0              300.27334     -4053.9259     -12444.838     -34.14379       317.20385      696.23433     -61943.436    
     29500   8.0233038e-16  299.17852     -4392.8671     -13005.738      30.405031     -203.26808      693.69581     -61941.24     
     30000   0              303.15453     -4342.2098     -13195.81      -404.79228      573.9725       702.91486     -61948.856    
Loop time of 562.733 on 1 procs for 30000 steps with 17939 atoms

Performance: 4.606 ns/day, 5.210 hours/ns, 53.311 timesteps/s, 956.351 katom-step/s
99.4% CPU use with 1 MPI tasks x no OpenMP threads

MPI task timing breakdown:
Section |  min time  |  avg time  |  max time  |%varavg| %total
---------------------------------------------------------------
Pair    | 545.58     | 545.58     | 545.58     |   0.0 | 96.95
Neigh   | 3.172      | 3.172      | 3.172      |   0.0 |  0.56
Comm    | 1.4286     | 1.4286     | 1.4286     |   0.0 |  0.25
Output  | 0.15283    | 0.15283    | 0.15283    |   0.0 |  0.03
Modify  | 11.69      | 11.69      | 11.69      |   0.0 |  2.08
Other   |            | 0.7081     |            |       |  0.13

Nlocal:          17939 ave       17939 max       17939 min
Histogram: 1 0 0 0 0 0 0 0 0 0
Nghost:          17081 ave       17081 max       17081 min
Histogram: 1 0 0 0 0 0 0 0 0 0
Neighs:    1.29016e+06 ave 1.29016e+06 max 1.29016e+06 min
Histogram: 1 0 0 0 0 0 0 0 0 0

Total # of neighbors = 1290162
Ave neighs/atom = 71.919394
Neighbor list builds = 122
Dangerous builds = 0

print           "Done."
Done.
Total wall time: 0:12:47
