LAMMPS (22 Jul 2025 - Update 4)
# Одноосное растяжение поликристалла
# Обязательные -var: temp datafile potfile elem material

units           metal
atom_style      atomic
boundary        p p p

read_data       ${datafile}
read_data       /Users/danilavertiy/Downloads/atomsk-polycrystal-tension/models/Cu_poly.data
Reading data file ...
  orthogonal box = (0 0 0) to (60 60 60)
  1 by 1 by 1 MPI processor grid
  reading atoms ...
  17939 atoms
  read_data CPU = 0.028 seconds

pair_style      eam/alloy
pair_coeff      * * ${potfile} ${elem}
pair_coeff      * * /Users/danilavertiy/Downloads/atomsk-polycrystal-tension/potentials/Cu_mishin1.eam.alloy ${elem}
pair_coeff      * * /Users/danilavertiy/Downloads/atomsk-polycrystal-tension/potentials/Cu_mishin1.eam.alloy Cu
Reading eam/alloy potential file /Users/danilavertiy/Downloads/atomsk-polycrystal-tension/potentials/Cu_mishin1.eam.alloy with DATE: 2007-10-12

neighbor        2.0 bin
neigh_modify    delay 10 every 1

timestep        0.001

reset_timestep  0
minimize        1.0e-12 1.0e-12 500 5000
Switching to 'neigh_modify every 1 delay 0 check yes' setting during minimization
Neighbor list info ...
  update: every = 1 steps, delay = 0 steps, check = yes
  max neighbors/atom: 2000, page size: 100000
  master list distance cutoff = 7.50679
  ghost atom cutoff = 7.50679
  binsize = 3.753395, bins = 16 16 16
  1 neighbor lists, perpetual/occasional/extra = 1 0 0
  (1) pair eam/alloy, perpetual
      attributes: half, newton on
      pair build: half/bin/atomonly/newton
      stencil: half/bin/3d
      bin: standard
WARNING: A per-atom density exceeded rhomax of EAM potential table - a linear extrapolation to the energy was made (src/MANYBODY/pair_eam.cpp:335)
Per MPI rank memory allocation (min/avg/max) = 17.47 | 17.47 | 17.47 Mbytes
   Step          Temp          E_pair         E_mol          TotEng         Press     
         0   0             -26373.138      0             -26373.138      419341.13    
       500   0             -62561.856      0             -62561.856     -4325.6636    
Loop time of 15.5719 on 1 procs for 500 steps with 17939 atoms

99.7% CPU use with 1 MPI tasks x no OpenMP threads

Minimization stats:
  Stopping criterion = max iterations
  Energy initial, next-to-last, final = 
     -26373.1382169928  -62561.6663618975  -62561.8558162963
  Force two-norm initial, final = 30496.086 1.6328063
  Force max component initial, final = 8615.757 0.38365446
  Final line search alpha, max atom move = 0.21996296 0.08438977
  Iterations, force evaluations = 500 724

MPI task timing breakdown:
Section |  min time  |  avg time  |  max time  |%varavg| %total
---------------------------------------------------------------
Pair    | 14.332     | 14.332     | 14.332     |   0.0 | 92.04
Neigh   | 0.9184     | 0.9184     | 0.9184     |   0.0 |  5.90
Comm    | 0.041727   | 0.041727   | 0.041727   |   0.0 |  0.27
Output  | 4.0291e-05 | 4.0291e-05 | 4.0291e-05 |   0.0 |  0.00
Modify  | 0          | 0          | 0          |   0.0 |  0.00
Other   |            | 0.2793     |            |       |  1.79

Nlocal:          17939 ave       17939 max       17939 min
Histogram: 1 0 0 0 0 0 0 0 0 0
Nghost:          17211 ave       17211 max       17211 min
Histogram: 1 0 0 0 0 0 0 0 0 0
Neighs:     1.2899e+06 ave  1.2899e+06 max  1.2899e+06 min
Histogram: 1 0 0 0 0 0 0 0 0 0

Total # of neighbors = 1289899
Ave neighs/atom = 71.904733
Neighbor list builds = 34
Dangerous builds = 0

variable        T equal ${temp}
variable        T equal 600
velocity        all create ${T} 492845 rot yes dist gaussian
velocity        all create 600 492845 rot yes dist gaussian

fix             eq all npt temp ${T} ${T} 0.1 iso 0 0 1
fix             eq all npt temp 600 ${T} 0.1 iso 0 0 1
fix             eq all npt temp 600 600 0.1 iso 0 0 1
thermo          500
thermo_style    custom step temp pe press lx ly lz
run             10000
Per MPI rank memory allocation (min/avg/max) = 14.47 | 14.47 | 14.47 Mbytes
   Step          Temp          PotEng         Press            Lx             Ly             Lz      
       500   600           -62561.856      2553.8108      60             60             60           
      1000   433.75698     -61528.082      1951.2435      60.352715      60.352715      60.352715    
      1500   597.8077      -61090.412      64.395909      60.576699      60.576699      60.576699    
      2000   590.52219     -61123.4        108.86044      60.55819       60.55819       60.55819     
      2500   600.89354     -61094.264     -1.1724878      60.571976      60.571976      60.571976    
      3000   613.13798     -61092.191     -373.69683      60.580381      60.580381      60.580381    
      3500   598.26061     -61110.518      231.17014      60.56289       60.56289       60.56289     
      4000   595.04042     -61137.62       256.67328      60.550745      60.550745      60.550745    
      4500   597.21274     -61117.191      526.90161      60.555687      60.555687      60.555687    
      5000   602.21686     -61111.393      396.78045      60.559267      60.559267      60.559267    
      5500   599.84944     -61135.258      260.13896      60.551073      60.551073      60.551073    
      6000   601.92393     -61146.22      -189.10845      60.554737      60.554737      60.554737    
      6500   602.0663      -61146.908     -365.79653      60.556147      60.556147      60.556147    
      7000   603.80723     -61141.17      -26.642141      60.553477      60.553477      60.553477    
      7500   599.79017     -61148.822      182.94008      60.547413      60.547413      60.547413    
      8000   596.12577     -61153.059      530.57791      60.540029      60.540029      60.540029    
      8500   600.00199     -61160.35       958.60069      60.529424      60.529424      60.529424    
      9000   603.25362     -61147.793      203.66493      60.54468       60.54468       60.54468     
      9500   597.61503     -61149.274     -963.21514      60.564277      60.564277      60.564277    
     10000   591.95238     -61172.334     -1748.3692      60.5636        60.5636        60.5636      
     10500   593.67992     -61155.089     -929.79612      60.55925       60.55925       60.55925     
Loop time of 191.244 on 1 procs for 10000 steps with 17939 atoms

Performance: 4.518 ns/day, 5.312 hours/ns, 52.289 timesteps/s, 938.017 katom-step/s
98.3% CPU use with 1 MPI tasks x no OpenMP threads

MPI task timing breakdown:
Section |  min time  |  avg time  |  max time  |%varavg| %total
---------------------------------------------------------------
Pair    | 184.88     | 184.88     | 184.88     |   0.0 | 96.67
Neigh   | 2.4418     | 2.4418     | 2.4418     |   0.0 |  1.28
Comm    | 0.51851    | 0.51851    | 0.51851    |   0.0 |  0.27
Output  | 0.00089017 | 0.00089017 | 0.00089017 |   0.0 |  0.00
Modify  | 3.1552     | 3.1552     | 3.1552     |   0.0 |  1.65
Other   |            | 0.2443     |            |       |  0.13

Nlocal:          17939 ave       17939 max       17939 min
Histogram: 1 0 0 0 0 0 0 0 0 0
Nghost:          16969 ave       16969 max       16969 min
Histogram: 1 0 0 0 0 0 0 0 0 0
Neighs:    1.27836e+06 ave 1.27836e+06 max 1.27836e+06 min
Histogram: 1 0 0 0 0 0 0 0 0 0

Total # of neighbors = 1278359
Ave neighs/atom = 71.261442
Neighbor list builds = 95
Dangerous builds = 0
unfix           eq

variable        L0 equal lx
print           "L0=${L0} T=${T} material=${material}"
L0=60.5592504899562 T=600 material=Cu

reset_timestep  0
fix             1 all npt temp ${T} ${T} 0.1 y 0 0 1 z 0 0 1 drag 1.0
fix             1 all npt temp 600 ${T} 0.1 y 0 0 1 z 0 0 1 drag 1.0
fix             1 all npt temp 600 600 0.1 y 0 0 1 z 0 0 1 drag 1.0
variable        erate equal 1.0e9
variable        erate_ps equal "v_erate/1.0e12"
fix             2 all deform 1 x erate ${erate_ps} units box remap x
fix             2 all deform 1 x erate 0.001 units box remap x

variable        strain equal "(lx - v_L0)/v_L0"
variable        sxx equal "-pxx/10000"
variable        syy equal "-pyy/10000"
variable        szz equal "-pzz/10000"
fix             out all print 200 "${strain} ${sxx} ${syy} ${szz}" file stress_strain.dat screen no

dump            1 all custom 2000 dump_tension.lammpstrj id type x y z
dump_modify     1 element ${elem} sort id
dump_modify     1 element Cu sort id

thermo          500
thermo_style    custom step v_strain temp press pxx pyy pzz ke pe
run             30000
Per MPI rank memory allocation (min/avg/max) = 14.48 | 14.48 | 14.48 Mbytes
   Step        v_strain         Temp          Press           Pxx            Pyy            Pzz           KinEng         PotEng    
         0  -4.6932069e-16  593.67992     -929.79612     -1452.6566     -285.90193     -1050.8298      1376.5469     -61155.089    
       500   7.0362923e-16  599.80625     -199.98875     -1242.2916      715.38324     -73.057895      1390.7518     -61164.781    
      1000   4.6885184e-16  599.66053     -952.65487     -2132.4983      23.682816     -749.14916      1390.414      -61173.722    
      1500   0              598.93229     -444.95179     -1521.1456      226.37634     -40.086096      1388.7254     -61178.503    
      2000  -3.5128794e-16  601.23367     -925.66612     -2622.3459     -329.51696      174.86451      1394.0616     -61185.712    
      2500  -7.0222548e-16  598.51177     -1526.6301     -3579.3027     -260.08117     -740.50646      1387.7504     -61181.651    
      3000   5.8489618e-16  592.68946     -464.97282     -3320.362       1470.8039      454.6396       1374.2504     -61169.682    
      3500   3.5076285e-16  601.80171     -1266.4535     -3045.6698      189.05079     -942.74132      1395.3786     -61191.47     
      4000  -1.1686272e-16  600.99641     -1530.8957     -3821.5146     -456.14704     -315.02548      1393.5114     -61189.231    
      4500  -4.6721821e-16  602.21262     -1066.2882     -3750.1104      456.26097      94.984866      1396.3314     -61194.83     
      5000  -8.1722509e-16  600.02494     -1773.6004     -4757.164      -395.95625     -167.68088      1391.2589     -61193.088    
      5500   3.5006516e-16  599.26579     -1982.1698     -5044.1286     -304.67034     -597.71044      1389.4987     -61191.206    
      6000   1.1663039e-16  603.8038      -1434.7081     -4717.2218     -324.76838      737.86571      1400.0208     -61203.709    
      6500  -2.331449e-16   600.78261     -1849.0362     -5416.8526     -251.69663      121.44058      1393.0157     -61191.716    
      7000  -5.8257286e-16  599.72779     -2212.0052     -5837.2558     -365.8515      -432.90822      1390.5699     -61192.909    
      7500   6.9874049e-16  597.67042     -1878.4904     -5753.8497      188.28925     -69.9108        1385.7996     -61190.109    
      8000   2.3279796e-16  598.29341     -1107.7743     -4869.7694      808.10783      738.33872      1387.2441     -61191.194    
      8500   0              599.69174     -2737.2025     -7126.5033     -623.61528     -461.48895      1390.4863     -61194.24     
      9000  -4.6513448e-16  601.36593     -2130.1838     -5818.0993     -589.95818      17.50605       1394.3682     -61196.175    
      9500  -8.1358218e-16  599.53253     -2469.2766     -6698.4015      26.795702     -736.22395      1390.1172     -61192.792    
     10000   5.8084244e-16  599.2353      -1840.4495     -6694.1662      1142.1207      30.697071      1389.428      -61190.011    
     10500   1.1611101e-16  603.47504     -2279.815      -6678.1227      387.33578     -548.65811      1399.2585     -61198.185    
     11000  -1.1605358e-16  600.5096      -1603.6337     -6440.6514      318.80179      1310.9485      1392.3827     -61195.906    
     11500  -5.7998108e-16  599.70721     -2317.4474     -6469.9792     -93.443579     -388.91936      1390.5222     -61193.181    
     12000   6.9563344e-16  598.67577     -2655.3399     -7210.1144     -858.31205      102.40672      1388.1306     -61194.688    
     12500   3.4764496e-16  599.56843     -2567.1086     -7141.7535      49.854822     -609.42721      1390.2004     -61193.207    
     13000  -1.1582446e-16  605.09223     -2893.9406     -8013.0284     -604.70762     -64.085827      1403.0083     -61207.226    
     13500  -3.4730194e-16  596.55269     -2236.859      -8055.7597      800.03341      545.1494       1383.2079     -61186.977    
     14000  -6.9426138e-16  601.2095      -2989.6784     -8289.3102     -145.7174      -534.00757      1394.0055     -61198.841    
     14500   5.7826601e-16  601.24561     -2626.4119     -7723.4419     -849.30874      693.51494      1394.0893     -61196.719    
     15000   2.3119246e-16  598.68094     -1867.5239     -7123.4016      1169.1875      351.6424       1388.1426     -61191.953    
     15500  -2.3107863e-16  602.91678     -3229.9203     -8714.4387     -38.440769     -936.88157      1397.9641     -61206.592    
     16000  -4.6192982e-16  595.47206     -2833.5283     -8694.1543      1106.0239     -912.45454      1380.7023     -61185.429    
     16500   6.925539e-16   599.50139     -2687.0299     -8319.9995     -99.829768      358.73949      1390.045      -61198.64     
     17000   3.4610671e-16  602.67491     -2407.4096     -8517.0435      824.76524      470.04953      1397.4033     -61205.788    
     17500   1.1531221e-16  598.07853     -2879.2609     -8406.1166     -339.142        107.47585      1386.7458     -61187.822    
     18000  -3.4576672e-16  601.93182     -3265.1449     -9757.2904     -55.21497       17.070531      1395.6803     -61203.159    
     18500  -5.7599496e-16  597.8565      -3385.4137     -10140.585      809.42157     -825.07797      1386.231      -61190.999    
     19000   5.7571233e-16  596.4036      -2975.9264     -9273.1228     -52.515201      397.85888      1382.8622     -61185.059    
     19500   2.3017199e-16  597.87863     -3058.2274     -9740.9361     -560.50898      1126.7628      1386.2823     -61191.184    
     20000  -1.1502958e-16  601.26333     -3570.2594     -10054.543      57.438496     -713.67415      1394.1303     -61199.686    
     20500  -5.7486611e-16  597.64125     -2987.6572     -9308.1884     -106.26528      451.48217      1385.7319     -61192.47     
     21000  -8.0441843e-16  597.82197     -3087.8491     -9970.8271      840.64782     -133.368        1386.151      -61193.931    
     21500   4.5944268e-16  602.45114     -3195.8167     -9550.7271      360.50557     -397.22856      1396.8845     -61201.284    
     22000   1.1480447e-16  598.30025     -3472.4319     -9471.8302     -1129.5071      184.04147      1387.2599     -61192.966    
     22500  -2.2949667e-16  596.97215     -3545.3337     -10420.073     -290.58455      74.656185      1384.1805     -61193.41     
     23000  -6.8815351e-16  603.24877     -3087.7032     -10016.963      718.27577      35.577355      1398.7339     -61200.424    
     23500   6.8781733e-16  597.43848     -3378.8564     -9537.8089     -237.4566      -361.30357      1385.2618     -61194.314    
     24000   2.2916049e-16  602.39786     -3199.1092     -9321.0132     -229.13112     -47.183185      1396.7609     -61202.707    
     24500  -1.1452433e-16  600.85062     -3193.1357     -8981.4231     -273.92591     -324.05818      1393.1734     -61200.363    
     25000  -4.5787385e-16  598.87986     -2582.633      -8639.7239      840.37935      51.445573      1388.6039     -61198.272    
     25500   8.0088856e-16  598.365       -2451.1101     -8022.4229      188.3913       480.70142      1387.4101     -61197.306    
     26000   5.7178447e-16  597.27896     -3053.0618     -8958.1135      261.46717     -462.53897      1384.8919     -61197.429    
     26500   1.1430119e-16  596.73836     -2924.6279     -9725.8787      327.46238      624.53275      1383.6384     -61193.741    
     27000  -2.2849109e-16  598.97694     -3672.6163     -10227.35      -689.82339     -100.67576      1388.8289     -61199.645    
     27500  -5.7094975e-16  597.10872     -3545.1068     -9974.1209      344.06291     -1005.2625      1384.4972     -61197.264    
     28000   5.7067205e-16  599.73341     -3246.5871     -9741.5505      1136.2419     -1134.4526      1390.583      -61199.285    
     28500   3.4223677e-16  601.76627     -3495.5878     -9041.8639     -176.49155     -1268.4081      1395.2965     -61209.081    
     29000   0              603.65713     -3335.0868     -9893.2632     -41.350968     -70.646279      1399.6808     -61212.136    
     29500  -3.4190434e-16  601.84202     -2603.9125     -9390.7984      1172.6209      406.44012      1395.4721     -61210.909    
     30000  -6.8347674e-16  598.15921     -3216.4563     -9611.9673     -353.91365      316.51191      1386.9329     -61202.459    
Loop time of 576.603 on 1 procs for 30000 steps with 17939 atoms

Performance: 4.495 ns/day, 5.339 hours/ns, 52.029 timesteps/s, 933.346 katom-step/s
98.9% CPU use with 1 MPI tasks x no OpenMP threads

MPI task timing breakdown:
Section |  min time  |  avg time  |  max time  |%varavg| %total
---------------------------------------------------------------
Pair    | 554.93     | 554.93     | 554.93     |   0.0 | 96.24
Neigh   | 7.298      | 7.298      | 7.298      |   0.0 |  1.27
Comm    | 1.5271     | 1.5271     | 1.5271     |   0.0 |  0.26
Output  | 0.15287    | 0.15287    | 0.15287    |   0.0 |  0.03
Modify  | 11.981     | 11.981     | 11.981     |   0.0 |  2.08
Other   |            | 0.7171     |            |       |  0.12

Nlocal:          17939 ave       17939 max       17939 min
Histogram: 1 0 0 0 0 0 0 0 0 0
Nghost:          16980 ave       16980 max       16980 min
Histogram: 1 0 0 0 0 0 0 0 0 0
Neighs:    1.27925e+06 ave 1.27925e+06 max 1.27925e+06 min
Histogram: 1 0 0 0 0 0 0 0 0 0

Total # of neighbors = 1279253
Ave neighs/atom = 71.311277
Neighbor list builds = 282
Dangerous builds = 0

print           "Done."
Done.
Total wall time: 0:13:03
