>>> Cu @ 0 K (T=1)
LAMMPS (22 Jul 2025 - Update 4)
Reading data file ...
  orthogonal box = (0 0 0) to (60 60 60)
  1 by 1 by 1 MPI processor grid
  reading atoms ...
  17939 atoms
  read_data CPU = 0.046 seconds
Reading eam/alloy potential file /Users/danilavertiy/Downloads/atomsk-polycrystal-tension/potentials/Cu_mishin1.eam.alloy with DATE: 2007-10-12
Switching to 'neigh_modify every 1 delay 0 check yes' setting during minimization
Neighbor list info ...
  update: every = 1 steps, delay = 0 steps, check = yes
  max neighbors/atom: 2000, page size: 100000
  master list distance cutoff = 7.50679
  ghost atom cutoff = 7.50679
  binsize = 3.753395, bins = 16 16 16
  1 neighbor lists, perpetual/occasional/extra = 1 0 0
  (1) pair eam/alloy, perpetual
      attributes: half, newton on
      pair build: half/bin/atomonly/newton
      stencil: half/bin/3d
      bin: standard
Setting up cg style minimization ...
  Unit style    : metal
  Current step  : 0
WARNING: A per-atom density exceeded rhomax of EAM potential table - a linear extrapolation to the energy was made (src/MANYBODY/pair_eam.cpp:335)
Per MPI rank memory allocation (min/avg/max) = 17.47 | 17.47 | 17.47 Mbytes
   Step          Temp          E_pair         E_mol          TotEng         Press     
         0   0             -26373.138      0             -26373.138      419341.13    
       500   0             -62561.856      0             -62561.856     -4325.6636    
Loop time of 34.5436 on 1 procs for 500 steps with 17939 atoms

86.1% CPU use with 1 MPI tasks x no OpenMP threads

Minimization stats:
  Stopping criterion = max iterations
  Energy initial, next-to-last, final = 
     -26373.1382169928  -62561.6663618975  -62561.8558162963
  Force two-norm initial, final = 30496.086 1.6328063
  Force max component initial, final = 8615.757 0.38365446
  Final line search alpha, max atom move = 0.21996296 0.08438977
  Iterations, force evaluations = 500 724

MPI task timing breakdown:
Section |  min time  |  avg time  |  max time  |%varavg| %total
---------------------------------------------------------------
Pair    | 32.064     | 32.064     | 32.064     |   0.0 | 92.82
Neigh   | 1.7757     | 1.7757     | 1.7757     |   0.0 |  5.14
Comm    | 0.11509    | 0.11509    | 0.11509    |   0.0 |  0.33
Output  | 0.00095667 | 0.00095667 | 0.00095667 |   0.0 |  0.00
Modify  | 0          | 0          | 0          |   0.0 |  0.00
Other   |            | 0.5876     |            |       |  1.70

Nlocal:          17939 ave       17939 max       17939 min
Histogram: 1 0 0 0 0 0 0 0 0 0
Nghost:          17211 ave       17211 max       17211 min
Histogram: 1 0 0 0 0 0 0 0 0 0
Neighs:     1.2899e+06 ave  1.2899e+06 max  1.2899e+06 min
Histogram: 1 0 0 0 0 0 0 0 0 0

Total # of neighbors = 1289899
Ave neighs/atom = 71.904733
Neighbor list builds = 34
Dangerous builds = 0
Setting up Verlet run ...
  Unit style    : metal
  Current step  : 500
  Time step     : 0.001
Per MPI rank memory allocation (min/avg/max) = 14.47 | 14.47 | 14.47 Mbytes
   Step          Temp          PotEng         Press            Lx             Ly             Lz      
       500   1             -62561.856     -4314.1978      60             60             60           
      1000   1.4341522     -62564.424      11.469128      59.935304      59.935304      59.935304    
      1500   1.298296      -62567.294     -0.89090168     59.934287      59.934287      59.934287    
      2000   1.0963395     -62569.073      0.12147181     59.933282      59.933282      59.933282    
      2500   1.0550476     -62570.881     -0.022919965    59.932697      59.932697      59.932697    
      3000   1.1815502     -62573.438     -0.0061657126   59.931566      59.931566      59.931566    
      3500   1.1345256     -62575.434     -0.0024482296   59.930457      59.930457      59.930457    
      4000   1.0670801     -62577.613     -0.0058278343   59.929523      59.929523      59.929523    
      4500   1.1870612     -62579.815     -0.0099073511   59.928675      59.928675      59.928675    
      5000   1.1315541     -62582.424     -0.0018897484   59.927245      59.927245      59.927245    
      5500   1.169582      -62584.692     -0.0050494376   59.926188      59.926188      59.926188    
      6000   1.1946638     -62587.389     -0.0014153204   59.925067      59.925067      59.925067    
      6500   1.06255       -62589.158     -0.0030780898   59.924674      59.924674      59.924674    
      7000   1.0796541     -62591.307      0.0013882653   59.92379       59.92379       59.92379     
      7500   0.98509016    -62592.154      0.0036879412   59.923268      59.923268      59.923268    
      8000   1.0243131     -62592.267     -0.0014809201   59.923528      59.923528      59.923528    
      8500   1.022562      -62593.622      0.0012231806   59.923442      59.923442      59.923442    
      9000   0.97941793    -62594.473     -0.0039288047   59.923223      59.923223      59.923223    
      9500   1.0053678     -62594.88       0.0052403367   59.92259       59.92259       59.92259     
     10000   1.0351654     -62595.713     -0.0039648212   59.922645      59.922645      59.922645    
     10500   1.0020166     -62597.126      0.0048197456   59.922187      59.922187      59.922187    
Loop time of 300.492 on 1 procs for 10000 steps with 17939 atoms

Performance: 2.875 ns/day, 8.347 hours/ns, 33.279 timesteps/s, 596.987 katom-step/s
93.9% CPU use with 1 MPI tasks x no OpenMP threads

MPI task timing breakdown:
Section |  min time  |  avg time  |  max time  |%varavg| %total
---------------------------------------------------------------
Pair    | 293.27     | 293.27     | 293.27     |   0.0 | 97.60
Neigh   | 1.1181     | 1.1181     | 1.1181     |   0.0 |  0.37
Comm    | 0.82984    | 0.82984    | 0.82984    |   0.0 |  0.28
Output  | 0.0074123  | 0.0074123  | 0.0074123  |   0.0 |  0.00
Modify  | 4.8493     | 4.8493     | 4.8493     |   0.0 |  1.61
Other   |            | 0.4145     |            |       |  0.14

Nlocal:          17939 ave       17939 max       17939 min
Histogram: 1 0 0 0 0 0 0 0 0 0
Nghost:          17213 ave       17213 max       17213 min
Histogram: 1 0 0 0 0 0 0 0 0 0
Neighs:    1.29437e+06 ave 1.29437e+06 max 1.29437e+06 min
Histogram: 1 0 0 0 0 0 0 0 0 0

Total # of neighbors = 1294374
Ave neighs/atom = 72.154189
Neighbor list builds = 24
Dangerous builds = 0
L0=59.9221865864289 T=1 material=Cu
Setting up Verlet run ...
  Unit style    : metal
  Current step  : 0
  Time step     : 0.001
Per MPI rank memory allocation (min/avg/max) = 14.47 | 14.47 | 14.47 Mbytes
   Step        v_strain         Temp          Press           Pxx            Pyy            Pzz           KinEng         PotEng    
         0  -8.30043e-16    1.0020166      0.0048197456  -281.62608      979.3832      -697.74266      2.3233443     -62597.126    
       500  -7.1110987e-16  1.0918738     -270.32513     -824.87166      15.288437     -1.3921812      2.5316935     -62597.676    
      1000  -3.5537734e-16  1.0511444     -332.43536     -1000.1034     -14.08945       16.886814      2.4372554     -62598.002    
      1500  -1.1839997e-16  1.1782458     -592.36605     -1776.7583     -5.9410039      5.6011209      2.7319615     -62598.819    
      2000   0              1.3013893     -612.12199     -1834.8032      3.7754101     -5.3382235      3.0174904     -62599.857    
      2500   3.548456e-16   1.2321086     -641.95805     -1924.124       3.2991667     -5.0493764      2.8568514     -62600.524    
      3000   5.9111451e-16  1.3039978     -857.97931     -2572.5905     -2.3083085      0.96088854     3.0235386     -62601.749    
      3500   8.2714798e-16  1.3141588     -1029.8265     -3088.6386     -3.3868791      2.5460686      3.0470986     -62603.18     
      4000  -5.9052575e-16  1.1888619     -1243.7855     -3730.8995      0.13926145    -0.59625042     2.7565767     -62603.705    
      4500  -3.5413909e-16  1.2353876     -1445.1498     -4335.2762      1.7589961     -1.9320136      2.8644544     -62604.306    
      5000  -1.1798763e-16  1.350004      -1555.4689     -4666.5461      0.44839789    -0.30901364     3.1302118     -62605.373    
      5500   1.1792896e-16  1.2242633     -1604.7365     -4814.4921     -0.90890145     1.1914788      2.8386608     -62605.772    
      6000   3.5361105e-16  1.3078389     -1630.6975     -4892.3784     -0.22473633     0.51064718     3.0324448     -62606.628    
      6500   5.8905897e-16  1.3819949     -1759.8719     -5279.7834      0.68446046    -0.51684152     3.204388      -62607.788    
      7000  -8.2427309e-16  1.2532432     -1814.1109     -5442.4842      0.48587399    -0.33426501     2.9058554     -62608.422    
      7500  -5.884743e-16   1.1702515     -1903.3494     -5710.1517     -0.28946099     0.39304012     2.7134252     -62608.771    
      8000  -3.5290944e-16  1.0533881     -2017.8207     -6053.4802     -0.21142141     0.22967172     2.4424577     -62608.64     
      8500  -1.1757816e-16  1.1408307     -2145.3166     -6435.9124      0.09077822    -0.12816816     2.6452081     -62608.869    
      9000   2.3503978e-16  1.0506994     -2258.7883     -6776.296       0.11786397    -0.18675362     2.4362237     -62608.799    
      9500   3.5238506e-16  1.1305215     -2361.7251     -7085.1272     -0.061540072    0.013392005    2.6213046     -62609        
     10000   5.8701768e-16  1.0833908     -2444.4336     -7333.2384     -0.072389755    0.0098898457   2.512024      -62608.889    
     10500  -7.0407267e-16  1.1451738     -2556.6308     -7669.8208     -0.044601172   -0.027166459    2.6552785     -62609.003    
     11000  -5.8643705e-16  1.2233266     -2685.0239     -8055.0267      0.06848261    -0.11358168     2.8364889     -62609.651    
     11500  -3.516883e-16   1.0847359     -2846.1088     -8538.287      -0.044181763    0.0047674739   2.515143      -62609.44     
     12000   0              1.0719385     -2964.892      -8894.657      -0.064553012    0.045659187    2.4854701     -62609.233    
     12500   1.1711365e-16  1.0893139     -2994.5962     -8983.8135      0.013894625    0.01112015     2.5257578     -62609.043    
     13000   3.5116754e-16  1.268403      -3122.3671     -9367.0686      0.010516868   -0.043152141    2.9410061     -62609.502    
     13500   7.0198858e-16  1.149889      -3186.3063     -9558.9124      0.010222163   -0.016810714    2.6662115     -62609.629    
     14000  -8.1858284e-16  1.2391763     -3277.8228     -9833.4608     -0.044046732    0.036362055    2.873239      -62610.08     
     14500  -5.8441386e-16  1.244527      -3370.6563     -10111.969      0.045533106   -0.045440978    2.8856456     -62610.539    
     15000  -2.3365039e-16  1.1455898     -3543.3223     -10629.98      -0.010896485    0.024283141    2.6562429     -62610.481    
     15500  -1.1676767e-16  1.1917348     -3627.0948     -10881.278     -0.0056517791  -0.00078471559  2.7632379     -62610.649    
     16000   2.3342042e-16  1.1447947     -3757.0067     -11270.986     -0.05144947     0.017373852    2.6543995     -62610.481    
     16500   4.666112e-16   1.2197296     -3795.97       -11387.899      0.012699649   -0.023397919    2.8281485     -62610.815    
     17000   5.8297724e-16  1.2885387     -3757.8423     -11273.545      0.034918195   -0.017350554    2.9876941     -62611.278    
     17500  -6.9922892e-16  1.4089493     -3990.8474     -11972.514     -0.048255938    0.020511864    3.2668862     -62612.271    
     18000  -4.6592366e-16  1.3071826     -4059.4851     -12178.428     -0.0075826928  -0.019775605    3.0309231     -62612.627    
     18500  -3.492712e-16   1.2812077     -4084.974      -12254.915      0.033611848   -0.04033372     2.970696      -62612.861    
     19000   0              1.085276      -4159.2063     -12477.601      0.022058675   -0.040281436    2.5163953     -62612.407    
     19500   2.3261907e-16  1.0955109     -4252.6233     -12757.848     -0.013879412   -0.0078727389   2.5401265     -62611.974    
     20000   3.4875756e-16  1.2129191     -4276.7846     -12830.362     -0.060578722    0.068396949    2.8123574     -62612.212    
     20500   6.9717337e-16  1.1349446     -4397.3491     -13192.037     -0.039925839    0.029819129    2.6315602     -62611.91     
     21000  -6.9683196e-16  1.2009929     -4549.8221     -13649.454     -0.078260078    0.065724371    2.7847043     -62611.813    
     21500  -5.8040906e-16  1.1236397     -4638.4688     -13915.385      0.01506032    -0.036657884    2.6053479     -62611.363    
     22000  -2.3205004e-16  1.1098216     -4772.8861     -14318.636      0.023456278   -0.045955365    2.5733083     -62611.012    
     22500   0              1.0275096     -4881.5487     -14644.643      0.0029713031  -0.006428259    2.3824542     -62610.181    
     23000   2.3182321e-16  1.068076      -4883.9001     -14651.706     -0.013818509    0.019226233    2.4765141     -62609.487    
     23500   4.6341992e-16  1.000396      -5018.6094     -15055.803      0.059517171   -0.084545073    2.3195866     -62608.594    
     24000   6.9479046e-16  1.1569364     -5102.0761     -15306.229      0.027944048   -0.027622839    2.682552      -62608.3      
     24500  -6.9445137e-16  1.1456262     -5182.5259     -15547.555     -0.007760851   -0.015364899    2.6563274     -62608.046    
     25000  -4.6274174e-16  1.1960134     -5323.279      -15969.813     -0.075612592    0.051197669    2.7731587     -62607.813    
     25500  -2.3125806e-16  1.0990053     -5359.6274     -16078.892      0.0010839898   0.0080938215   2.548229      -62607.143    
     26000   0              1.0934836     -5460.0943     -16380.271      0.0029574069  -0.014889804    2.5354259     -62606.547    
     26500   2.3103277e-16  1.0846548     -5506.4327     -16519.301      0.023706119   -0.021157334    2.5149548     -62605.878    
     27000   4.6184059e-16  1.0392778     -5649.7536     -16949.248     -0.045736637    0.032879988    2.4097407     -62605.139    
     27500   6.9242377e-16  1.1217499     -5799.9955     -17399.996     -0.033318355    0.043091238    2.600966      -62604.621    
     28000  -6.9208699e-16  1.0704283     -5902.6875     -17708.04      -0.026814062    0.0047336154   2.4819683     -62603.787    
     28500  -4.6116703e-16  1.2272826     -5892.5317     -17677.598     -0.0078045904   0.011154131    2.8456615     -62603.58     
     29000  -2.3047147e-16  1.177404      -5948.3106     -17844.951      0.020618079   -0.0018067336   2.7300095     -62603.135    
     29500   0              1.3134403     -6085.7595     -18257.278      0.019620304   -0.02037402     3.0454326     -62603.262    
     30000   3.4537157e-16  1.164884      -6141.5974     -18424.778     -0.011787883   -0.0023313436   2.7009798     -62602.683    
Loop time of 572.783 on 1 procs for 30000 steps with 17939 atoms

Performance: 4.525 ns/day, 5.304 hours/ns, 52.376 timesteps/s, 939.570 katom-step/s
97.5% CPU use with 1 MPI tasks x no OpenMP threads

MPI task timing breakdown:
Section |  min time  |  avg time  |  max time  |%varavg| %total
---------------------------------------------------------------
Pair    | 556.45     | 556.45     | 556.45     |   0.0 | 97.15
Neigh   | 1.4502     | 1.4502     | 1.4502     |   0.0 |  0.25
Comm    | 1.5154     | 1.5154     | 1.5154     |   0.0 |  0.26
Output  | 0.15002    | 0.15002    | 0.15002    |   0.0 |  0.03
Modify  | 12.396     | 12.396     | 12.396     |   0.0 |  2.16
Other   |            | 0.8269     |            |       |  0.14

Nlocal:          17939 ave       17939 max       17939 min
Histogram: 1 0 0 0 0 0 0 0 0 0
Nghost:          17194 ave       17194 max       17194 min
Histogram: 1 0 0 0 0 0 0 0 0 0
Neighs:    1.29472e+06 ave 1.29472e+06 max 1.29472e+06 min
Histogram: 1 0 0 0 0 0 0 0 0 0

Total # of neighbors = 1294724
Ave neighs/atom = 72.1737
Neighbor list builds = 50
Dangerous builds = 0
Done.
Total wall time: 0:15:08
>>> Cu @ 300 K (T=300)
LAMMPS (22 Jul 2025 - Update 4)
Reading data file ...
  orthogonal box = (0 0 0) to (60 60 60)
  1 by 1 by 1 MPI processor grid
  reading atoms ...
  17939 atoms
  read_data CPU = 0.029 seconds
Reading eam/alloy potential file /Users/danilavertiy/Downloads/atomsk-polycrystal-tension/potentials/Cu_mishin1.eam.alloy with DATE: 2007-10-12
Switching to 'neigh_modify every 1 delay 0 check yes' setting during minimization
Neighbor list info ...
  update: every = 1 steps, delay = 0 steps, check = yes
  max neighbors/atom: 2000, page size: 100000
  master list distance cutoff = 7.50679
  ghost atom cutoff = 7.50679
  binsize = 3.753395, bins = 16 16 16
  1 neighbor lists, perpetual/occasional/extra = 1 0 0
  (1) pair eam/alloy, perpetual
      attributes: half, newton on
      pair build: half/bin/atomonly/newton
      stencil: half/bin/3d
      bin: standard
Setting up cg style minimization ...
  Unit style    : metal
  Current step  : 0
WARNING: A per-atom density exceeded rhomax of EAM potential table - a linear extrapolation to the energy was made (src/MANYBODY/pair_eam.cpp:335)
Per MPI rank memory allocation (min/avg/max) = 17.47 | 17.47 | 17.47 Mbytes
   Step          Temp          E_pair         E_mol          TotEng         Press     
         0   0             -26373.138      0             -26373.138      419341.13    
       500   0             -62561.856      0             -62561.856     -4325.6636    
Loop time of 16.0272 on 1 procs for 500 steps with 17939 atoms

99.0% CPU use with 1 MPI tasks x no OpenMP threads

Minimization stats:
  Stopping criterion = max iterations
  Energy initial, next-to-last, final = 
     -26373.1382169928  -62561.6663618975  -62561.8558162963
  Force two-norm initial, final = 30496.086 1.6328063
  Force max component initial, final = 8615.757 0.38365446
  Final line search alpha, max atom move = 0.21996296 0.08438977
  Iterations, force evaluations = 500 724

MPI task timing breakdown:
Section |  min time  |  avg time  |  max time  |%varavg| %total
---------------------------------------------------------------
Pair    | 14.741     | 14.741     | 14.741     |   0.0 | 91.97
Neigh   | 0.95254    | 0.95254    | 0.95254    |   0.0 |  5.94
Comm    | 0.045652   | 0.045652   | 0.045652   |   0.0 |  0.28
Output  | 0.00013012 | 0.00013012 | 0.00013012 |   0.0 |  0.00
Modify  | 0          | 0          | 0          |   0.0 |  0.00
Other   |            | 0.2883     |            |       |  1.80

Nlocal:          17939 ave       17939 max       17939 min
Histogram: 1 0 0 0 0 0 0 0 0 0
Nghost:          17211 ave       17211 max       17211 min
Histogram: 1 0 0 0 0 0 0 0 0 0
Neighs:     1.2899e+06 ave  1.2899e+06 max  1.2899e+06 min
Histogram: 1 0 0 0 0 0 0 0 0 0

Total # of neighbors = 1289899
Ave neighs/atom = 71.904733
Neighbor list builds = 34
Dangerous builds = 0
Setting up Verlet run ...
  Unit style    : metal
  Current step  : 500
  Time step     : 0.001
Per MPI rank memory allocation (min/avg/max) = 14.47 | 14.47 | 14.47 Mbytes
   Step          Temp          PotEng         Press            Lx             Ly             Lz      
       500   300           -62561.856     -885.92639      60             60             60           
      1000   219.88134     -62044.997     -867.32522      60.169015      60.169015      60.169015    
      1500   302.46875     -61845.449     -634.97708      60.253201      60.253201      60.253201    
      2000   294.90861     -61878.585      128.93313      60.226549      60.226549      60.226549    
      2500   297.87748     -61871.647     -102.83154      60.233925      60.233925      60.233925    
      3000   304.16471     -61866.079     -252.53465      60.23821       60.23821       60.23821     
      3500   300.73491     -61876.829      244.95414      60.224783      60.224783      60.224783    
      4000   295.8285      -61891.258      238.09763      60.218494      60.218494      60.218494    
      4500   299.36837     -61882.757     -185.40845      60.229805      60.229805      60.229805    
      5000   305.05178     -61884.432     -597.9369       60.23624       60.23624       60.23624     
      5500   300.68515     -61892.834      40.311881      60.220957      60.220957      60.220957    
      6000   297.68335     -61903.178      404.18046      60.211722      60.211722      60.211722    
      6500   300.49252     -61895.813     -161.91484      60.223955      60.223955      60.223955    
      7000   300.32666     -61896.264     -661.24884      60.229579      60.229579      60.229579    
      7500   298.36462     -61908.858      413.18982      60.209601      60.209601      60.209601    
      8000   299.10647     -61912.45       607.125        60.203866      60.203866      60.203866    
      8500   301.96457     -61907.641     -895.75654      60.229941      60.229941      60.229941    
      9000   301.68872     -61905.109     -432.02733      60.223227      60.223227      60.223227    
      9500   300.57005     -61915.88       621.42594      60.202417      60.202417      60.202417    
     10000   298.86851     -61921.302      116.47669      60.208772      60.208772      60.208772    
     10500   299.05938     -61918.905     -342.55618      60.21555       60.21555       60.21555     
Loop time of 188.315 on 1 procs for 10000 steps with 17939 atoms

Performance: 4.588 ns/day, 5.231 hours/ns, 53.103 timesteps/s, 952.608 katom-step/s
99.1% CPU use with 1 MPI tasks x no OpenMP threads

MPI task timing breakdown:
Section |  min time  |  avg time  |  max time  |%varavg| %total
---------------------------------------------------------------
Pair    | 183.32     | 183.32     | 183.32     |   0.0 | 97.35
Neigh   | 1.1436     | 1.1436     | 1.1436     |   0.0 |  0.61
Comm    | 0.49274    | 0.49274    | 0.49274    |   0.0 |  0.26
Output  | 0.0017572  | 0.0017572  | 0.0017572  |   0.0 |  0.00
Modify  | 3.111      | 3.111      | 3.111      |   0.0 |  1.65
Other   |            | 0.2405     |            |       |  0.13

Nlocal:          17939 ave       17939 max       17939 min
Histogram: 1 0 0 0 0 0 0 0 0 0
Nghost:          17102 ave       17102 max       17102 min
Histogram: 1 0 0 0 0 0 0 0 0 0
Neighs:    1.28884e+06 ave 1.28884e+06 max 1.28884e+06 min
Histogram: 1 0 0 0 0 0 0 0 0 0

Total # of neighbors = 1288840
Ave neighs/atom = 71.845699
Neighbor list builds = 45
Dangerous builds = 0
L0=60.215549906306 T=300 material=Cu
Setting up Verlet run ...
  Unit style    : metal
  Current step  : 0
  Time step     : 0.001
Per MPI rank memory allocation (min/avg/max) = 14.48 | 14.48 | 14.48 Mbytes
   Step        v_strain         Temp          Press           Pxx            Pyy            Pzz           KinEng         PotEng    
         0   3.5399962e-16  299.05938     -342.55618     -1138.0101      1391.4004     -1281.0588      693.41956     -61918.905    
       500  -4.7176362e-16  301.60081     -782.10627     -1719.3237     -631.64542      4.6503398      699.3123      -61922.236    
      1000   4.7152797e-16  300.75203     -939.36656     -1945.2061     -541.38908     -331.50453      697.34426     -61921.987    
      1500  -3.5346942e-16  300.21974     -569.4214      -1459.0546      386.93135     -636.14097      696.11005     -61921.331    
      2000   4.7105738e-16  301.12995     -623.99562     -1584.5489      273.27246     -560.71037      698.22052     -61925.643    
      2500  -3.5311683e-16  300.83846     -434.33538     -1542.1353      122.57997      116.54915      697.54466     -61926.503    
      3000   7.058816e-16   300.54053     -856.98542     -2923.9969      214.14746      138.89321      696.85385     -61927.427    
      3500  -1.1758832e-16  302.19367     -1264.6819     -3508.6417      230.27129     -515.67541      700.68693     -61931.507    
      4000   8.2270829e-16  299.4591      -1181.6536     -3652.8348     -275.47299      383.34701      694.34639     -61925.819    
      4500   0              297.98039     -1674.8947     -4463.0413     -91.714463     -469.9282       690.91773     -61921.38     
      5000  -8.2188968e-16  299.65645     -1388.2623     -4185.1529     -325.15371      345.51966      694.80395     -61924.014    
      5500   1.1735443e-16  300.99288     -1177.1897     -3249.5966      197.38382     -479.35629      697.9027      -61930.461    
      6000  -7.0377659e-16  301.2097      -1464.5501     -4178.6191     -337.90516      122.8741       698.40544     -61929.796    
      6500   1.1723783e-16  299.71771     -1877.5235     -4857.6062     -605.11314     -169.85101      694.94601     -61927.35     
      7000  -7.0307771e-16  301.40438     -1171.6485     -4614.726       692.33582      407.44476      698.85685     -61930.229    
      7500   1.1712146e-16  298.15017     -1785.0042     -5102.8282     -21.085637     -231.09879      691.31139     -61924.917    
      8000  -4.6825347e-16  297.75368     -1512.9868     -5416.0928      463.77184      413.36074      690.39207     -61925.822    
      8500   3.5101599e-16  296.89954     -1757.6688     -4976.9702     -181.52765     -114.50863      688.4116      -61923.543    
      9000  -3.5084205e-16  299.20741     -1116.4122     -4869.7454      456.74615      1063.7627      693.76278     -61929.009    
      9500   4.675577e-16   298.71966     -2473.0279     -6568.1605     -282.8451      -568.07802      692.63187     -61928.951    
     10000  -2.3366312e-16  300.39483     -1981.0752     -6099.4234      19.988615      136.20904      696.51601     -61933.458    
     10500   5.8386875e-16  300.23008     -1951.6998     -5973.9078      7.2764131      111.53187      696.13402     -61934.199    
     11000  -2.33432e-16    301.75691     -2832.6348     -7527.9093     -244.93704     -725.05808      699.67423     -61938.578    
     11500   5.8329152e-16  298.45102     -2312.6659     -6502.6787      100.82406     -536.14288      692.00897     -61931.347    
     12000  -2.3320133e-16  301.05547     -2048.1768     -6513.3979     -197.23006      566.09763      698.04783     -61936.602    
     12500   8.158016e-16   297.15701     -2366.9196     -7174.5012      94.412244     -20.669822      689.0086      -61927.484    
     13000   0              298.13951     -2213.342      -6706.5552      274.95831     -208.42903      691.28669     -61929.72     
     13500  -6.9856857e-16  300.45323     -2270.6824     -7360.4044      282.22159      266.13571      696.65143     -61936.303    
     14000   1.1637069e-16  299.74681     -2775.9274     -7740.524       7.758528      -595.01684      695.01348     -61934.396    
     14500  -6.9787999e-16  301.7708      -2531.4014     -7871.0182      110.45391      166.36007      699.70644     -61935.999    
     15000   2.3251207e-16  300.38785     -3179.4238     -8544.2644     -716.28862     -277.71824      696.49984     -61934.545    
     15500  -5.8099397e-16  299.22966     -2691.1142     -8086.5834     -283.42591      296.66672      693.81438     -61934.253    
     16000   2.3228322e-16  299.9898      -2641.5905     -7959.1572      526.71765     -492.33195      695.5769      -61933.859    
     16500  -5.804224e-16   300.63653     -3313.1414     -9519.408       138.21105     -558.22735      697.07644     -61935.938    
     17000   3.4808223e-16  299.73215     -2704.6348     -8821.0183     -287.02096      994.13492      694.9795      -61933.852    
     17500  -3.4791118e-16  299.8816      -3228.8989     -9399.14       -438.15819      150.60158      695.32602     -61932.906    
     18000   4.6365373e-16  300.98294     -2995.6697     -9347.6827      253.22921      107.44433      697.87966     -61937.009    
     18500  -2.3171306e-16  299.99101     -3434.7832     -9832.7495     -157.79331     -313.80681      695.57971     -61935.408    
     19000   5.789984e-16   300.61011     -3021.5599     -8895.6148      9.7569591     -178.82181      697.01519     -61938.278    
     19500  -1.1574289e-16  300.60176     -2877.8839     -8884.9434      268.417       -17.12525       696.99583     -61939.1      
     20000   6.9411691e-16  300.89653     -3674.9997     -9832.5679     -371.40559     -821.0255       697.6793      -61941.265    
     20500  -1.1562947e-16  299.15223     -2735.0727     -9266.6971      1078.9199     -17.441014      693.63484     -61935.943    
     21000   6.9343707e-16  300.81993     -3248.8699     -9915.143       12.907337      155.62588      697.50168     -61941.212    
     21500  -1.1551628e-16  299.18944     -3333.2024     -9816.2246      184.98632     -368.36904      693.72113     -61938.016    
     22000   8.0821832e-16  298.64831     -3547.9472     -10328.014     -673.29421      357.46623      692.46643     -61936.754    
     22500   1.154033e-16   301.9736      -3799.4005     -11401.33      -102.03961      105.1682       700.17666     -61943.258    
     23000  -5.7673448e-16  298.56694     -3683.129      -11402.498      229.57516      123.53606      692.27776     -61937.537    
     23500   2.3058109e-16  301.82453     -3521.8348     -10630.824     -537.70555      603.02502      699.83102     -61946.057    
     24000  -5.7617126e-16  301.05163     -3322.8954     -10311.108      620.33317     -277.91131      698.03892     -61945.745    
     24500   3.4553404e-16  298.83351     -3252.494      -10606.762      54.435689      794.84422      692.89583     -61941.432    
     25000  -4.6048732e-16  298.54012     -3852.2064     -11547.121     -145.85967      136.36177      692.21558     -61941.6      
     25500   3.451971e-16   300.93132     -4057.2701     -11532.052      334.49209     -974.25019      697.75996     -61943.525    
     26000  -4.600385e-16   297.52994     -3807.7491     -11261.111     -234.08354      71.947005      689.87329     -61940.642    
     26500   4.5981442e-16  299.04231     -3689.3663     -11422.386      8.9000211      345.38751      693.37998     -61941.556    
     27000  -3.4469292e-16  299.83533     -4273.2179     -12552.322     -213.51647     -53.814889      695.21873     -61944.714    
     27500   4.5936691e-16  300.8724      -4240.7983     -12575.39       344.09498     -491.09968      697.62334     -61947.929    
     28000  -1.1478587e-16  298.65667     -4031.7808     -12090.319     -27.22907       22.205908      692.48581     -61942.605    
     28500   6.8838041e-16  300.39986     -3801.1047     -11743.749      57.501525      282.93318      696.5277      -61945.179    
     29000   0              300.27334     -4053.9259     -12444.838     -34.14379       317.20385      696.23433     -61943.436    
     29500   8.0233038e-16  299.17852     -4392.8671     -13005.738      30.405031     -203.26808      693.69581     -61941.24     
     30000   0              303.15453     -4342.2098     -13195.81      -404.79228      573.9725       702.91486     -61948.856    
Loop time of 562.733 on 1 procs for 30000 steps with 17939 atoms

Performance: 4.606 ns/day, 5.210 hours/ns, 53.311 timesteps/s, 956.351 katom-step/s
99.4% CPU use with 1 MPI tasks x no OpenMP threads

MPI task timing breakdown:
Section |  min time  |  avg time  |  max time  |%varavg| %total
---------------------------------------------------------------
Pair    | 545.58     | 545.58     | 545.58     |   0.0 | 96.95
Neigh   | 3.172      | 3.172      | 3.172      |   0.0 |  0.56
Comm    | 1.4286     | 1.4286     | 1.4286     |   0.0 |  0.25
Output  | 0.15283    | 0.15283    | 0.15283    |   0.0 |  0.03
Modify  | 11.69      | 11.69      | 11.69      |   0.0 |  2.08
Other   |            | 0.7081     |            |       |  0.13

Nlocal:          17939 ave       17939 max       17939 min
Histogram: 1 0 0 0 0 0 0 0 0 0
Nghost:          17081 ave       17081 max       17081 min
Histogram: 1 0 0 0 0 0 0 0 0 0
Neighs:    1.29016e+06 ave 1.29016e+06 max 1.29016e+06 min
Histogram: 1 0 0 0 0 0 0 0 0 0

Total # of neighbors = 1290162
Ave neighs/atom = 71.919394
Neighbor list builds = 122
Dangerous builds = 0
Done.
Total wall time: 0:12:47
>>> Cu @ 600 K (T=600)
LAMMPS (22 Jul 2025 - Update 4)
Reading data file ...
  orthogonal box = (0 0 0) to (60 60 60)
  1 by 1 by 1 MPI processor grid
  reading atoms ...
  17939 atoms
  read_data CPU = 0.028 seconds
Reading eam/alloy potential file /Users/danilavertiy/Downloads/atomsk-polycrystal-tension/potentials/Cu_mishin1.eam.alloy with DATE: 2007-10-12
Switching to 'neigh_modify every 1 delay 0 check yes' setting during minimization
Neighbor list info ...
  update: every = 1 steps, delay = 0 steps, check = yes
  max neighbors/atom: 2000, page size: 100000
  master list distance cutoff = 7.50679
  ghost atom cutoff = 7.50679
  binsize = 3.753395, bins = 16 16 16
  1 neighbor lists, perpetual/occasional/extra = 1 0 0
  (1) pair eam/alloy, perpetual
      attributes: half, newton on
      pair build: half/bin/atomonly/newton
      stencil: half/bin/3d
      bin: standard
Setting up cg style minimization ...
  Unit style    : metal
  Current step  : 0
WARNING: A per-atom density exceeded rhomax of EAM potential table - a linear extrapolation to the energy was made (src/MANYBODY/pair_eam.cpp:335)
Per MPI rank memory allocation (min/avg/max) = 17.47 | 17.47 | 17.47 Mbytes
   Step          Temp          E_pair         E_mol          TotEng         Press     
         0   0             -26373.138      0             -26373.138      419341.13    
       500   0             -62561.856      0             -62561.856     -4325.6636    
Loop time of 15.5719 on 1 procs for 500 steps with 17939 atoms

99.7% CPU use with 1 MPI tasks x no OpenMP threads

Minimization stats:
  Stopping criterion = max iterations
  Energy initial, next-to-last, final = 
     -26373.1382169928  -62561.6663618975  -62561.8558162963
  Force two-norm initial, final = 30496.086 1.6328063
  Force max component initial, final = 8615.757 0.38365446
  Final line search alpha, max atom move = 0.21996296 0.08438977
  Iterations, force evaluations = 500 724

MPI task timing breakdown:
Section |  min time  |  avg time  |  max time  |%varavg| %total
---------------------------------------------------------------
Pair    | 14.332     | 14.332     | 14.332     |   0.0 | 92.04
Neigh   | 0.9184     | 0.9184     | 0.9184     |   0.0 |  5.90
Comm    | 0.041727   | 0.041727   | 0.041727   |   0.0 |  0.27
Output  | 4.0291e-05 | 4.0291e-05 | 4.0291e-05 |   0.0 |  0.00
Modify  | 0          | 0          | 0          |   0.0 |  0.00
Other   |            | 0.2793     |            |       |  1.79

Nlocal:          17939 ave       17939 max       17939 min
Histogram: 1 0 0 0 0 0 0 0 0 0
Nghost:          17211 ave       17211 max       17211 min
Histogram: 1 0 0 0 0 0 0 0 0 0
Neighs:     1.2899e+06 ave  1.2899e+06 max  1.2899e+06 min
Histogram: 1 0 0 0 0 0 0 0 0 0

Total # of neighbors = 1289899
Ave neighs/atom = 71.904733
Neighbor list builds = 34
Dangerous builds = 0
Setting up Verlet run ...
  Unit style    : metal
  Current step  : 500
  Time step     : 0.001
Per MPI rank memory allocation (min/avg/max) = 14.47 | 14.47 | 14.47 Mbytes
   Step          Temp          PotEng         Press            Lx             Ly             Lz      
       500   600           -62561.856      2553.8108      60             60             60           
      1000   433.75698     -61528.082      1951.2435      60.352715      60.352715      60.352715    
      1500   597.8077      -61090.412      64.395909      60.576699      60.576699      60.576699    
      2000   590.52219     -61123.4        108.86044      60.55819       60.55819       60.55819     
      2500   600.89354     -61094.264     -1.1724878      60.571976      60.571976      60.571976    
      3000   613.13798     -61092.191     -373.69683      60.580381      60.580381      60.580381    
      3500   598.26061     -61110.518      231.17014      60.56289       60.56289       60.56289     
      4000   595.04042     -61137.62       256.67328      60.550745      60.550745      60.550745    
      4500   597.21274     -61117.191      526.90161      60.555687      60.555687      60.555687    
      5000   602.21686     -61111.393      396.78045      60.559267      60.559267      60.559267    
      5500   599.84944     -61135.258      260.13896      60.551073      60.551073      60.551073    
      6000   601.92393     -61146.22      -189.10845      60.554737      60.554737      60.554737    
      6500   602.0663      -61146.908     -365.79653      60.556147      60.556147      60.556147    
      7000   603.80723     -61141.17      -26.642141      60.553477      60.553477      60.553477    
      7500   599.79017     -61148.822      182.94008      60.547413      60.547413      60.547413    
      8000   596.12577     -61153.059      530.57791      60.540029      60.540029      60.540029    
      8500   600.00199     -61160.35       958.60069      60.529424      60.529424      60.529424    
      9000   603.25362     -61147.793      203.66493      60.54468       60.54468       60.54468     
      9500   597.61503     -61149.274     -963.21514      60.564277      60.564277      60.564277    
     10000   591.95238     -61172.334     -1748.3692      60.5636        60.5636        60.5636      
     10500   593.67992     -61155.089     -929.79612      60.55925       60.55925       60.55925     
Loop time of 191.244 on 1 procs for 10000 steps with 17939 atoms

Performance: 4.518 ns/day, 5.312 hours/ns, 52.289 timesteps/s, 938.017 katom-step/s
98.3% CPU use with 1 MPI tasks x no OpenMP threads

MPI task timing breakdown:
Section |  min time  |  avg time  |  max time  |%varavg| %total
---------------------------------------------------------------
Pair    | 184.88     | 184.88     | 184.88     |   0.0 | 96.67
Neigh   | 2.4418     | 2.4418     | 2.4418     |   0.0 |  1.28
Comm    | 0.51851    | 0.51851    | 0.51851    |   0.0 |  0.27
Output  | 0.00089017 | 0.00089017 | 0.00089017 |   0.0 |  0.00
Modify  | 3.1552     | 3.1552     | 3.1552     |   0.0 |  1.65
Other   |            | 0.2443     |            |       |  0.13

Nlocal:          17939 ave       17939 max       17939 min
Histogram: 1 0 0 0 0 0 0 0 0 0
Nghost:          16969 ave       16969 max       16969 min
Histogram: 1 0 0 0 0 0 0 0 0 0
Neighs:    1.27836e+06 ave 1.27836e+06 max 1.27836e+06 min
Histogram: 1 0 0 0 0 0 0 0 0 0

Total # of neighbors = 1278359
Ave neighs/atom = 71.261442
Neighbor list builds = 95
Dangerous builds = 0
L0=60.5592504899562 T=600 material=Cu
Setting up Verlet run ...
  Unit style    : metal
  Current step  : 0
  Time step     : 0.001
Per MPI rank memory allocation (min/avg/max) = 14.48 | 14.48 | 14.48 Mbytes
   Step        v_strain         Temp          Press           Pxx            Pyy            Pzz           KinEng         PotEng    
         0  -4.6932069e-16  593.67992     -929.79612     -1452.6566     -285.90193     -1050.8298      1376.5469     -61155.089    
       500   7.0362923e-16  599.80625     -199.98875     -1242.2916      715.38324     -73.057895      1390.7518     -61164.781    
      1000   4.6885184e-16  599.66053     -952.65487     -2132.4983      23.682816     -749.14916      1390.414      -61173.722    
      1500   0              598.93229     -444.95179     -1521.1456      226.37634     -40.086096      1388.7254     -61178.503    
      2000  -3.5128794e-16  601.23367     -925.66612     -2622.3459     -329.51696      174.86451      1394.0616     -61185.712    
      2500  -7.0222548e-16  598.51177     -1526.6301     -3579.3027     -260.08117     -740.50646      1387.7504     -61181.651    
      3000   5.8489618e-16  592.68946     -464.97282     -3320.362       1470.8039      454.6396       1374.2504     -61169.682    
      3500   3.5076285e-16  601.80171     -1266.4535     -3045.6698      189.05079     -942.74132      1395.3786     -61191.47     
      4000  -1.1686272e-16  600.99641     -1530.8957     -3821.5146     -456.14704     -315.02548      1393.5114     -61189.231    
      4500  -4.6721821e-16  602.21262     -1066.2882     -3750.1104      456.26097      94.984866      1396.3314     -61194.83     
      5000  -8.1722509e-16  600.02494     -1773.6004     -4757.164      -395.95625     -167.68088      1391.2589     -61193.088    
      5500   3.5006516e-16  599.26579     -1982.1698     -5044.1286     -304.67034     -597.71044      1389.4987     -61191.206    
      6000   1.1663039e-16  603.8038      -1434.7081     -4717.2218     -324.76838      737.86571      1400.0208     -61203.709    
      6500  -2.331449e-16   600.78261     -1849.0362     -5416.8526     -251.69663      121.44058      1393.0157     -61191.716    
      7000  -5.8257286e-16  599.72779     -2212.0052     -5837.2558     -365.8515      -432.90822      1390.5699     -61192.909    
      7500   6.9874049e-16  597.67042     -1878.4904     -5753.8497      188.28925     -69.9108        1385.7996     -61190.109    
      8000   2.3279796e-16  598.29341     -1107.7743     -4869.7694      808.10783      738.33872      1387.2441     -61191.194    
      8500   0              599.69174     -2737.2025     -7126.5033     -623.61528     -461.48895      1390.4863     -61194.24     
      9000  -4.6513448e-16  601.36593     -2130.1838     -5818.0993     -589.95818      17.50605       1394.3682     -61196.175    
      9500  -8.1358218e-16  599.53253     -2469.2766     -6698.4015      26.795702     -736.22395      1390.1172     -61192.792    
     10000   5.8084244e-16  599.2353      -1840.4495     -6694.1662      1142.1207      30.697071      1389.428      -61190.011    
     10500   1.1611101e-16  603.47504     -2279.815      -6678.1227      387.33578     -548.65811      1399.2585     -61198.185    
     11000  -1.1605358e-16  600.5096      -1603.6337     -6440.6514      318.80179      1310.9485      1392.3827     -61195.906    
     11500  -5.7998108e-16  599.70721     -2317.4474     -6469.9792     -93.443579     -388.91936      1390.5222     -61193.181    
     12000   6.9563344e-16  598.67577     -2655.3399     -7210.1144     -858.31205      102.40672      1388.1306     -61194.688    
     12500   3.4764496e-16  599.56843     -2567.1086     -7141.7535      49.854822     -609.42721      1390.2004     -61193.207    
     13000  -1.1582446e-16  605.09223     -2893.9406     -8013.0284     -604.70762     -64.085827      1403.0083     -61207.226    
     13500  -3.4730194e-16  596.55269     -2236.859      -8055.7597      800.03341      545.1494       1383.2079     -61186.977    
     14000  -6.9426138e-16  601.2095      -2989.6784     -8289.3102     -145.7174      -534.00757      1394.0055     -61198.841    
     14500   5.7826601e-16  601.24561     -2626.4119     -7723.4419     -849.30874      693.51494      1394.0893     -61196.719    
     15000   2.3119246e-16  598.68094     -1867.5239     -7123.4016      1169.1875      351.6424       1388.1426     -61191.953    
     15500  -2.3107863e-16  602.91678     -3229.9203     -8714.4387     -38.440769     -936.88157      1397.9641     -61206.592    
     16000  -4.6192982e-16  595.47206     -2833.5283     -8694.1543      1106.0239     -912.45454      1380.7023     -61185.429    
     16500   6.925539e-16   599.50139     -2687.0299     -8319.9995     -99.829768      358.73949      1390.045      -61198.64     
     17000   3.4610671e-16  602.67491     -2407.4096     -8517.0435      824.76524      470.04953      1397.4033     -61205.788    
     17500   1.1531221e-16  598.07853     -2879.2609     -8406.1166     -339.142        107.47585      1386.7458     -61187.822    
     18000  -3.4576672e-16  601.93182     -3265.1449     -9757.2904     -55.21497       17.070531      1395.6803     -61203.159    
     18500  -5.7599496e-16  597.8565      -3385.4137     -10140.585      809.42157     -825.07797      1386.231      -61190.999    
     19000   5.7571233e-16  596.4036      -2975.9264     -9273.1228     -52.515201      397.85888      1382.8622     -61185.059    
     19500   2.3017199e-16  597.87863     -3058.2274     -9740.9361     -560.50898      1126.7628      1386.2823     -61191.184    
     20000  -1.1502958e-16  601.26333     -3570.2594     -10054.543      57.438496     -713.67415      1394.1303     -61199.686    
     20500  -5.7486611e-16  597.64125     -2987.6572     -9308.1884     -106.26528      451.48217      1385.7319     -61192.47     
     21000  -8.0441843e-16  597.82197     -3087.8491     -9970.8271      840.64782     -133.368        1386.151      -61193.931    
     21500   4.5944268e-16  602.45114     -3195.8167     -9550.7271      360.50557     -397.22856      1396.8845     -61201.284    
     22000   1.1480447e-16  598.30025     -3472.4319     -9471.8302     -1129.5071      184.04147      1387.2599     -61192.966    
     22500  -2.2949667e-16  596.97215     -3545.3337     -10420.073     -290.58455      74.656185      1384.1805     -61193.41     
     23000  -6.8815351e-16  603.24877     -3087.7032     -10016.963      718.27577      35.577355      1398.7339     -61200.424    
     23500   6.8781733e-16  597.43848     -3378.8564     -9537.8089     -237.4566      -361.30357      1385.2618     -61194.314    
     24000   2.2916049e-16  602.39786     -3199.1092     -9321.0132     -229.13112     -47.183185      1396.7609     -61202.707    
     24500  -1.1452433e-16  600.85062     -3193.1357     -8981.4231     -273.92591     -324.05818      1393.1734     -61200.363    
     25000  -4.5787385e-16  598.87986     -2582.633      -8639.7239      840.37935      51.445573      1388.6039     -61198.272    
     25500   8.0088856e-16  598.365       -2451.1101     -8022.4229      188.3913       480.70142      1387.4101     -61197.306    
     26000   5.7178447e-16  597.27896     -3053.0618     -8958.1135      261.46717     -462.53897      1384.8919     -61197.429    
     26500   1.1430119e-16  596.73836     -2924.6279     -9725.8787      327.46238      624.53275      1383.6384     -61193.741    
     27000  -2.2849109e-16  598.97694     -3672.6163     -10227.35      -689.82339     -100.67576      1388.8289     -61199.645    
     27500  -5.7094975e-16  597.10872     -3545.1068     -9974.1209      344.06291     -1005.2625      1384.4972     -61197.264    
     28000   5.7067205e-16  599.73341     -3246.5871     -9741.5505      1136.2419     -1134.4526      1390.583      -61199.285    
     28500   3.4223677e-16  601.76627     -3495.5878     -9041.8639     -176.49155     -1268.4081      1395.2965     -61209.081    
     29000   0              603.65713     -3335.0868     -9893.2632     -41.350968     -70.646279      1399.6808     -61212.136    
     29500  -3.4190434e-16  601.84202     -2603.9125     -9390.7984      1172.6209      406.44012      1395.4721     -61210.909    
     30000  -6.8347674e-16  598.15921     -3216.4563     -9611.9673     -353.91365      316.51191      1386.9329     -61202.459    
Loop time of 576.603 on 1 procs for 30000 steps with 17939 atoms

Performance: 4.495 ns/day, 5.339 hours/ns, 52.029 timesteps/s, 933.346 katom-step/s
98.9% CPU use with 1 MPI tasks x no OpenMP threads

MPI task timing breakdown:
Section |  min time  |  avg time  |  max time  |%varavg| %total
---------------------------------------------------------------
Pair    | 554.93     | 554.93     | 554.93     |   0.0 | 96.24
Neigh   | 7.298      | 7.298      | 7.298      |   0.0 |  1.27
Comm    | 1.5271     | 1.5271     | 1.5271     |   0.0 |  0.26
Output  | 0.15287    | 0.15287    | 0.15287    |   0.0 |  0.03
Modify  | 11.981     | 11.981     | 11.981     |   0.0 |  2.08
Other   |            | 0.7171     |            |       |  0.12

Nlocal:          17939 ave       17939 max       17939 min
Histogram: 1 0 0 0 0 0 0 0 0 0
Nghost:          16980 ave       16980 max       16980 min
Histogram: 1 0 0 0 0 0 0 0 0 0
Neighs:    1.27925e+06 ave 1.27925e+06 max 1.27925e+06 min
Histogram: 1 0 0 0 0 0 0 0 0 0

Total # of neighbors = 1279253
Ave neighs/atom = 71.311277
Neighbor list builds = 282
Dangerous builds = 0
Done.
Total wall time: 0:13:03
>>> Al @ 0 K (T=1)
LAMMPS (22 Jul 2025 - Update 4)
Reading data file ...
  orthogonal box = (0 0 0) to (60 60 60)
  1 by 1 by 1 MPI processor grid
  reading atoms ...
  12790 atoms
  read_data CPU = 0.020 seconds
Reading eam/alloy potential file /Users/danilavertiy/Downloads/atomsk-polycrystal-tension/potentials/Al_zhou.eam.alloy with DATE: 2007-10-12
Switching to 'neigh_modify every 1 delay 0 check yes' setting during minimization
Neighbor list info ...
  update: every = 1 steps, delay = 0 steps, check = yes
  max neighbors/atom: 2000, page size: 100000
  master list distance cutoff = 12.1025
  ghost atom cutoff = 12.1025
  binsize = 6.05125, bins = 10 10 10
  1 neighbor lists, perpetual/occasional/extra = 1 0 0
  (1) pair eam/alloy, perpetual
      attributes: half, newton on
      pair build: half/bin/atomonly/newton
      stencil: half/bin/3d
      bin: standard
Setting up cg style minimization ...
  Unit style    : metal
  Current step  : 0
Per MPI rank memory allocation (min/avg/max) = 23.03 | 23.03 | 23.03 Mbytes
   Step          Temp          E_pair         E_mol          TotEng         Press     
         0   0             -40955.556      0             -40955.556      68182.616    
       500   0             -45315.482      0             -45315.482      23504.443    
Loop time of 44.2518 on 1 procs for 500 steps with 12790 atoms

97.6% CPU use with 1 MPI tasks x no OpenMP threads

Minimization stats:
  Stopping criterion = max iterations
  Energy initial, next-to-last, final = 
     -40955.5563016907   -45315.456735025  -45315.4819575211
  Force two-norm initial, final = 917.05532 0.38125013
  Force max component initial, final = 193.45198 0.15901509
  Final line search alpha, max atom move = 1 0.15901509
  Iterations, force evaluations = 500 730

MPI task timing breakdown:
Section |  min time  |  avg time  |  max time  |%varavg| %total
---------------------------------------------------------------
Pair    | 42.121     | 42.121     | 42.121     |   0.0 | 95.18
Neigh   | 1.8575     | 1.8575     | 1.8575     |   0.0 |  4.20
Comm    | 0.058566   | 0.058566   | 0.058566   |   0.0 |  0.13
Output  | 0.00080463 | 0.00080463 | 0.00080463 |   0.0 |  0.00
Modify  | 0          | 0          | 0          |   0.0 |  0.00
Other   |            | 0.2142     |            |       |  0.48

Nlocal:          12790 ave       12790 max       12790 min
Histogram: 1 0 0 0 0 0 0 0 0 0
Nghost:          22557 ave       22557 max       22557 min
Histogram: 1 0 0 0 0 0 0 0 0 0
Neighs:    2.78132e+06 ave 2.78132e+06 max 2.78132e+06 min
Histogram: 1 0 0 0 0 0 0 0 0 0

Total # of neighbors = 2781320
Ave neighs/atom = 217.46052
Neighbor list builds = 34
Dangerous builds = 0
Setting up Verlet run ...
  Unit style    : metal
  Current step  : 500
  Time step     : 0.001
Per MPI rank memory allocation (min/avg/max) = 20.04 | 20.04 | 20.04 Mbytes
   Step          Temp          PotEng         Press            Lx             Ly             Lz      
       500   1             -45315.482      23512.617      60             60             60           
      1000   1.0311332     -45360.163      0.09107394     60.589868      60.589868      60.589868    
      1500   0.98782899    -45360.363      0.079176627    60.591689      60.591689      60.591689    
      2000   0.98773801    -45360.503     -0.047138553    60.59268       60.59268       60.59268     
      2500   1.0402855     -45360.831      0.031295538    60.592284      60.592284      60.592284    
      3000   1.079205      -45361.532      0.088713125    60.592292      60.592292      60.592292    
      3500   1.0178201     -45362.029      0.040882412    60.591683      60.591683      60.591683    
      4000   0.97968201    -45362.416     -0.039032714    60.591321      60.591321      60.591321    
      4500   1.121244      -45363.155      0.011190303    60.590514      60.590514      60.590514    
      5000   1.0144158     -45363.382     -0.021481569    60.591086      60.591086      60.591086    
      5500   1.0348211     -45363.947      0.08812488     60.590563      60.590563      60.590563    
      6000   1.0141314     -45364.369     -0.022911229    60.589759      60.589759      60.589759    
      6500   1.0858124     -45365.203      0.03162984     60.588846      60.588846      60.588846    
      7000   1.0668326     -45366.001     -0.021649596    60.588742      60.588742      60.588742    
      7500   0.98882717    -45366.494     -0.039654082    60.587998      60.587998      60.587998    
      8000   1.0846236     -45367.143      0.056529298    60.586197      60.586197      60.586197    
      8500   1.0158697     -45367.926     -0.016329701    60.585191      60.585191      60.585191    
      9000   1.0316558     -45368.435     -0.010355242    60.585427      60.585427      60.585427    
      9500   0.97194014    -45368.723     -0.12426722     60.58535       60.58535       60.58535     
     10000   1.0910039     -45369.15      -0.042621915    60.58505       60.58505       60.58505     
     10500   1.0194863     -45369.247      0.044923343    60.584686      60.584686      60.584686    
Loop time of 497.389 on 1 procs for 10000 steps with 12790 atoms

Performance: 1.737 ns/day, 13.816 hours/ns, 20.105 timesteps/s, 257.143 katom-step/s
98.6% CPU use with 1 MPI tasks x no OpenMP threads

MPI task timing breakdown:
Section |  min time  |  avg time  |  max time  |%varavg| %total
---------------------------------------------------------------
Pair    | 493.31     | 493.31     | 493.31     |   0.0 | 99.18
Neigh   | 0.9407     | 0.9407     | 0.9407     |   0.0 |  0.19
Comm    | 0.59526    | 0.59526    | 0.59526    |   0.0 |  0.12
Output  | 0.0045109  | 0.0045109  | 0.0045109  |   0.0 |  0.00
Modify  | 2.3411     | 2.3411     | 2.3411     |   0.0 |  0.47
Other   |            | 0.1986     |            |       |  0.04

Nlocal:          12790 ave       12790 max       12790 min
Histogram: 1 0 0 0 0 0 0 0 0 0
Nghost:          22265 ave       22265 max       22265 min
Histogram: 1 0 0 0 0 0 0 0 0 0
Neighs:    2.70331e+06 ave 2.70331e+06 max 2.70331e+06 min
Histogram: 1 0 0 0 0 0 0 0 0 0

Total # of neighbors = 2703310
Ave neighs/atom = 211.36122
Neighbor list builds = 22
Dangerous builds = 0
L0=60.5846862050905 T=1 material=Al
Setting up Verlet run ...
  Unit style    : metal
  Current step  : 0
  Time step     : 0.001
Per MPI rank memory allocation (min/avg/max) = 20.04 | 20.04 | 20.04 Mbytes
   Step        v_strain         Temp          Press           Pxx            Pyy            Pzz           KinEng         PotEng    
         0  -1.1728091e-16  1.0194863      0.044923343    122.07167     -626.86706      504.93016      1.685321      -45369.247    
       500   5.8611151e-16  1.0244078      22.271288      59.017539     -4.742294       12.538619      1.6934567     -45369.494    
      1000  -3.5149125e-16  1.056186      -58.239429     -173.10725      7.3135567     -8.9245905      1.7459896     -45369.753    
      1500   4.6842102e-16  1.1079868     -80.148102     -240.19774      4.0127515     -4.259314       1.8316219     -45370.064    
      2000  -4.6818728e-16  1.0436        -104.45484     -314.34163     -1.4862807      2.4634014      1.7251835     -45370.219    
      2500   3.5096533e-16  1.0569928     -224.33074     -671.99329     -3.2086954      2.2097798      1.7473232     -45370.451    
      3000  -5.8465062e-16  1.0870303     -256.99398     -771.52151      0.64956401    -0.10998886     1.7969784     -45370.727    
      3500   2.3374372e-16  1.1235977     -298.01544     -894.28227      1.9104291     -1.6744894      1.8574283     -45371.136    
      4000  -7.0088195e-16  1.1515411     -333.1284      -998.97754     -0.15751198    -0.25015828     1.9036217     -45371.64     
      4500   0              1.1785465     -388.35571     -1165.0521     -1.055256       1.0402089      1.9482646     -45372.18     
      5000   8.1688199e-16  1.1975252     -414.83015     -1244.6891     -0.10449861     0.30319396     1.9796384     -45372.737    
      5500  -1.166394e-16   1.2152264     -426.81203     -1280.1674      0.47807538    -0.7467913      2.0089005     -45373.322    
      6000   5.8290713e-16  1.1356561     -488.60399     -1465.8204      0.15200651    -0.14358951     1.8773622     -45373.718    
      6500  -3.4957053e-16  1.1605276     -552.75203     -1658.3016     -0.35110619     0.39664167     1.9184775     -45374.131    
      7000   4.6586262e-16  1.1101742     -562.07072     -1686.2614     -0.035352856    0.084614976    1.8352379     -45374.45     
      7500  -3.4922356e-16  1.1647831     -577.32863     -1732.0229      0.24292461    -0.20589941     1.9255122     -45374.819    
      8000   3.4905034e-16  1.2777757     -613.27516     -1840           0.084946346    0.08955846     2.1123013     -45375.728    
      8500  -5.8146214e-16  1.1431635     -698.58773     -2095.3837     -0.32065301    -0.058839188    1.8897728     -45376.058    
      9000   2.324696e-16   1.1051512     -763.89698     -2291.8836      0.050340177    0.14230732     1.8269343     -45376.291    
      9500  -6.9706338e-16  1.0564745     -795.88293     -2387.7664      0.14950919    -0.03194273     1.7464665     -45376.331    
     10000   0              1.0276613     -824.37439     -2472.9763     -0.067276333   -0.079629375    1.6988351     -45376.331    
     10500   8.1243582e-16  1.0123026     -889.24613     -2667.7859     -0.057689173    0.10521862     1.6734455     -45376.325    
     11000  -1.1600486e-16  1.0146457     -941.32865     -2823.9127     -0.0060485024  -0.067233943    1.6773189     -45376.224    
     11500   5.7973759e-16  1.0141369     -968.11417     -2904.42        0.025173532    0.05234871     1.6764779     -45376.109    
     12000  -3.4767069e-16  0.99691843    -1050.3229     -3150.9613     -0.0071117186  -0.00029165892  1.6480138     -45375.915    
     12500   4.63332e-16    1.0140108     -1067.0256     -3201.0075     -0.0060609229  -0.063338757    1.6762694     -45375.765    
     13000  -4.6310331e-16  0.99311647    -1108.0167     -3324.162       0.023164435    0.088758296    1.6417288     -45375.58     
     13500   2.3143742e-16  0.99424027    -1182.9534     -3548.7784     -0.084562478    0.0025981864   1.6435865     -45375.352    
     14000  -6.939699e-16   0.99579398    -1205.5388     -3616.4109     -0.084153232   -0.12132631     1.646155      -45375.128    
     14500   1.1560465e-16  1.040472      -1234.7399     -3704.2246     -0.0057009075   0.010499399    1.7200126     -45375.138    
     15000  -8.0883389e-16  1.0196543     -1295.2656     -3885.7751     -0.039306877    0.017622455    1.6855987     -45375.019    
     15500  -1.1549081e-16  1.0342334     -1327.7859     -3983.6802      0.18706613     0.13528526     1.7096995     -45374.893    
     16000   6.9260382e-16  1.0625324     -1369.5        -4108.6154      0.053949387    0.061611809    1.7564808     -45374.97     
     16500  -2.3075438e-16  1.0444484     -1412.335      -4236.8542     -0.11239769    -0.038395146    1.7265859     -45374.915    
     17000   4.6128186e-16  1.0053884     -1475.4262     -4426.4934      0.14556198     0.069202338    1.6620156     -45374.654    
     17500  -4.6105519e-16  1.0436841     -1489.1748     -4467.5554      0.033967994   -0.00285161     1.7253225     -45374.414    
     18000   3.4562155e-16  1.0751695     -1542.3901     -4626.9918     -0.13334221    -0.045304938    1.7773712     -45374.441    
     18500  -4.6060251e-16  1.0494881     -1579.8997     -4739.616      -0.033368095   -0.0496707      1.7349172     -45374.384    
     19000   2.3018825e-16  1.0173671     -1616.115      -4848.3626     -0.04575967     0.06336719     1.6818177     -45374.146    
     19500  -6.9022607e-16  1.0348669     -1652.4679     -4957.3335     -0.020022269   -0.050089051    1.7107468     -45374.053    
     20000   1.1498129e-16  1.0137676     -1679.5351     -5038.4244     -0.092786893   -0.088020972    1.6758674     -45373.876    
     20500  -8.0447467e-16  1.0179381     -1716.8654     -5150.6907      0.0043337232   0.090209054    1.6827616     -45373.701    
     21000  -1.1486867e-16  1.0462843     -1748.1112     -5244.3844      0.089665776   -0.038948478    1.7296209     -45373.506    
     21500   6.8887468e-16  1.0610655     -1787.5914     -5362.5576     -0.11940554    -0.097361884    1.7540558     -45373.391    
     22000  -2.2951255e-16  1.1157196     -1768.5134     -5305.3907     -0.085323058   -0.0641422      1.844405      -45373.42     
     22500   4.5880064e-16  1.1175374     -1788.3934     -5365.3612      0.042116217    0.1387425      1.84741       -45373.519    
     23000  -3.439323e-16   1.1085255     -1830.5794     -5491.7735      0.018966601    0.016289131    1.8325124     -45373.541    
     23500   4.5835237e-16  1.0749545     -1858.0378     -5573.9914     -0.044878754   -0.077226679    1.7770159     -45373.587    
     24000  -4.5812857e-16  1.0312591     -1941.654      -5824.9813      0.017720665    0.0016489696   1.7047826     -45373.415    
     24500   2.2895249e-16  1.044862      -1967.3048     -5901.858      -0.053820678   -0.0025120959   1.7272697     -45373.286    
     25000  -6.8652242e-16  1.1051997     -2059.8897     -6179.8686      0.0090745639   0.1903107      1.8270144     -45373.222    
     25500   1.1436462e-16  1.0030966     -2062.1502     -6186.2845     -0.045876356   -0.12037829     1.6582271     -45372.859    
     26000  -8.0016218e-16  1.0658959     -2091.8451     -6275.5903     -0.0079457785   0.063073134    1.7620411     -45372.802    
     26500  -1.142532e-16   1.0762184     -2135.3575     -6406.273       0.086567917    0.11379642     1.7791052     -45372.624    
     27000   6.8518547e-16  1.0294083     -2176.7489     -6530.2849      0.057073045   -0.018910849    1.7017232     -45372.349    
     27500  -2.2828402e-16  1.0139158     -2188.721      -6565.8985     -0.11375894    -0.15064305     1.6761124     -45371.953    
     28000   4.5634597e-16  1.0118843     -2270.698      -6811.9631     -0.039513584   -0.09126162     1.672754      -45371.627    
     28500  -4.5612412e-16  1.0419217     -2278.6939     -6836.0513     -0.026165616   -0.0043835263   1.722409      -45371.303    
     29000   3.4192686e-16  1.1236225     -2251.7735     -6755.5096      0.10267764     0.086322963    1.8574693     -45371.298    
     29500  -5.6960133e-16  1.106985      -2292.1019     -6876.5418      0.10853335     0.12743623     1.8299658     -45371.278    
     30000   1.1386496e-16  1.0861305     -2322.5722     -6967.5532     -0.11555715    -0.047653369    1.7954909     -45371.074    
Loop time of 1452.53 on 1 procs for 30000 steps with 12790 atoms

Performance: 1.784 ns/day, 13.449 hours/ns, 20.654 timesteps/s, 264.159 katom-step/s
99.4% CPU use with 1 MPI tasks x no OpenMP threads

MPI task timing breakdown:
Section |  min time  |  avg time  |  max time  |%varavg| %total
---------------------------------------------------------------
Pair    | 1439.2     | 1439.2     | 1439.2     |   0.0 | 99.08
Neigh   | 2.4723     | 2.4723     | 2.4723     |   0.0 |  0.17
Comm    | 1.7061     | 1.7061     | 1.7061     |   0.0 |  0.12
Output  | 0.10808    | 0.10808    | 0.10808    |   0.0 |  0.01
Modify  | 8.5098     | 8.5098     | 8.5098     |   0.0 |  0.59
Other   |            | 0.569      |            |       |  0.04

Nlocal:          12790 ave       12790 max       12790 min
Histogram: 1 0 0 0 0 0 0 0 0 0
Nghost:          22232 ave       22232 max       22232 min
Histogram: 1 0 0 0 0 0 0 0 0 0
Neighs:     2.6965e+06 ave  2.6965e+06 max  2.6965e+06 min
Histogram: 1 0 0 0 0 0 0 0 0 0

Total # of neighbors = 2696495
Ave neighs/atom = 210.82838
Neighbor list builds = 53
Dangerous builds = 0
Done.
Total wall time: 0:33:14
>>> Al @ 300 K (T=300)
LAMMPS (22 Jul 2025 - Update 4)
Reading data file ...
  orthogonal box = (0 0 0) to (60 60 60)
  1 by 1 by 1 MPI processor grid
  reading atoms ...
  12790 atoms
  read_data CPU = 0.020 seconds
Reading eam/alloy potential file /Users/danilavertiy/Downloads/atomsk-polycrystal-tension/potentials/Al_zhou.eam.alloy with DATE: 2007-10-12
Switching to 'neigh_modify every 1 delay 0 check yes' setting during minimization
Neighbor list info ...
  update: every = 1 steps, delay = 0 steps, check = yes
  max neighbors/atom: 2000, page size: 100000
  master list distance cutoff = 12.1025
  ghost atom cutoff = 12.1025
  binsize = 6.05125, bins = 10 10 10
  1 neighbor lists, perpetual/occasional/extra = 1 0 0
  (1) pair eam/alloy, perpetual
      attributes: half, newton on
      pair build: half/bin/atomonly/newton
      stencil: half/bin/3d
      bin: standard
Setting up cg style minimization ...
  Unit style    : metal
  Current step  : 0
Per MPI rank memory allocation (min/avg/max) = 23.03 | 23.03 | 23.03 Mbytes
   Step          Temp          E_pair         E_mol          TotEng         Press     
         0   0             -40955.556      0             -40955.556      68182.616    
       500   0             -45315.482      0             -45315.482      23504.443    
Loop time of 41.2407 on 1 procs for 500 steps with 12790 atoms

99.4% CPU use with 1 MPI tasks x no OpenMP threads

Minimization stats:
  Stopping criterion = max iterations
  Energy initial, next-to-last, final = 
     -40955.5563016907   -45315.456735025  -45315.4819575211
  Force two-norm initial, final = 917.05532 0.38125013
  Force max component initial, final = 193.45198 0.15901509
  Final line search alpha, max atom move = 1 0.15901509
  Iterations, force evaluations = 500 730

MPI task timing breakdown:
Section |  min time  |  avg time  |  max time  |%varavg| %total
---------------------------------------------------------------
Pair    | 39.24      | 39.24      | 39.24      |   0.0 | 95.15
Neigh   | 1.746      | 1.746      | 1.746      |   0.0 |  4.23
Comm    | 0.05223    | 0.05223    | 0.05223    |   0.0 |  0.13
Output  | 9.1667e-05 | 9.1667e-05 | 9.1667e-05 |   0.0 |  0.00
Modify  | 0          | 0          | 0          |   0.0 |  0.00
Other   |            | 0.2025     |            |       |  0.49

Nlocal:          12790 ave       12790 max       12790 min
Histogram: 1 0 0 0 0 0 0 0 0 0
Nghost:          22557 ave       22557 max       22557 min
Histogram: 1 0 0 0 0 0 0 0 0 0
Neighs:    2.78132e+06 ave 2.78132e+06 max 2.78132e+06 min
Histogram: 1 0 0 0 0 0 0 0 0 0

Total # of neighbors = 2781320
Ave neighs/atom = 217.46052
Neighbor list builds = 34
Dangerous builds = 0
Setting up Verlet run ...
  Unit style    : metal
  Current step  : 500
  Time step     : 0.001
Per MPI rank memory allocation (min/avg/max) = 20.04 | 20.04 | 20.04 Mbytes
   Step          Temp          PotEng         Press            Lx             Ly             Lz      
       500   300           -45315.482      25956.823      60             60             60           
      1000   209.00753     -44991.542      166.32891      60.888134      60.888134      60.888134    
      1500   299.48539     -44816.301     -396.73507      61.061177      61.061177      61.061177    
      2000   294.23266     -44823.207      261.67827      61.037334      61.037334      61.037334    
      2500   301.5553      -44804.875     -24.32261       61.059398      61.059398      61.059398    
      3000   302.67851     -44810.564     -175.33093      61.058121      61.058121      61.058121    
      3500   295.26637     -44821.895      178.39585      61.03528       61.03528       61.03528     
      4000   298.98989     -44815.952      215.55335      61.040907      61.040907      61.040907    
      4500   302.6753      -44817.995     -61.169381      61.04538       61.04538       61.04538     
      5000   299.53877     -44822.888      273.71469      61.028695      61.028695      61.028695    
      5500   299.03562     -44827.783      100.09673      61.037469      61.037469      61.037469    
      6000   296.9969      -44827.256     -323.39606      61.046648      61.046648      61.046648    
      6500   300.93066     -44824.319      274.76325      61.031958      61.031958      61.031958    
      7000   297.19482     -44827.293      128.22962      61.033544      61.033544      61.033544    
      7500   298.72107     -44835.478     -521.40337      61.047086      61.047086      61.047086    
      8000   301.75239     -44828.42      -269.30606      61.046386      61.046386      61.046386    
      8500   300.89385     -44832.448      301.66328      61.021193      61.021193      61.021193    
      9000   296.21297     -44838.058      61.952426      61.023401      61.023401      61.023401    
      9500   299.11146     -44837.941     -254.97214      61.0341        61.0341        61.0341      
     10000   302.32603     -44846.037     -111.07209      61.022235      61.022235      61.022235    
     10500   298.76952     -44847.937      447.77721      61.000251      61.000251      61.000251    
Loop time of 478.687 on 1 procs for 10000 steps with 12790 atoms

Performance: 1.805 ns/day, 13.297 hours/ns, 20.890 timesteps/s, 267.189 katom-step/s
99.4% CPU use with 1 MPI tasks x no OpenMP threads

MPI task timing breakdown:
Section |  min time  |  avg time  |  max time  |%varavg| %total
---------------------------------------------------------------
Pair    | 471.24     | 471.24     | 471.24     |   0.0 | 98.44
Neigh   | 4.4968     | 4.4968     | 4.4968     |   0.0 |  0.94
Comm    | 0.56973    | 0.56973    | 0.56973    |   0.0 |  0.12
Output  | 0.001764   | 0.001764   | 0.001764   |   0.0 |  0.00
Modify  | 2.2045     | 2.2045     | 2.2045     |   0.0 |  0.46
Other   |            | 0.177      |            |       |  0.04

Nlocal:          12790 ave       12790 max       12790 min
Histogram: 1 0 0 0 0 0 0 0 0 0
Nghost:          22022 ave       22022 max       22022 min
Histogram: 1 0 0 0 0 0 0 0 0 0
Neighs:    2.64122e+06 ave 2.64122e+06 max 2.64122e+06 min
Histogram: 1 0 0 0 0 0 0 0 0 0

Total # of neighbors = 2641217
Ave neighs/atom = 206.50641
Neighbor list builds = 108
Dangerous builds = 0
L0=61.0002505141214 T=300 material=Al
Setting up Verlet run ...
  Unit style    : metal
  Current step  : 0
  Time step     : 0.001
Per MPI rank memory allocation (min/avg/max) = 20.04 | 20.04 | 20.04 Mbytes
   Step        v_strain         Temp          Press           Pxx            Pyy            Pzz           KinEng         PotEng    
         0   4.6592775e-16  298.76952      447.77721      179.05326      442.09906      722.17932      493.89828     -44847.937    
       500  -2.3284745e-16  298.43848      380.6203       104.2862       460.9587       576.61599      493.35104     -44842.171    
      1000   6.9819343e-16  300.56215     -8.8628347     -329.91262      35.105099      268.21902      496.8617      -44845.889    
      1500   0              299.72663     -298.75949     -762.24033     -1.7166027     -132.32155      495.4805      -44848.514    
      2000  -5.8124719e-16  304.17596     -606.18382     -1243.6973     -136.75985     -438.09431      502.83571     -44857.502    
      2500   4.6476583e-16  299.24058     -607.39835     -987.14068     -368.82689     -466.22749      494.677       -44853.39     
      3000  -1.1613354e-16  300.82977     -472.84128     -857.39331     -191.49909     -369.63143      497.30411     -44856.435    
      3500   8.1252971e-16  300.24103     -691.1345      -1408.4575     -477.8809      -187.06509      496.33085     -44857.27     
      4000   2.3203573e-16  300.03062     -375.33045     -1090.1219      211.28534     -247.15483      495.98302     -44857.142    
      4500  -5.7980058e-16  299.17683     -357.20493     -1117.8722      185.57678     -139.3194       494.57161     -44859.609    
      5000   4.636097e-16   302.00295     -448.9966      -1113.6689     -145.01012     -88.310784      499.24348     -44864.857    
      5500  -1.1584479e-16  298.67948     -197.73536     -715.16575     -9.5971845      131.55685      493.74944     -44860.103    
      6000  -6.9472328e-16  300.22766     -221.44747     -1053.5847      300.21852      89.023819      496.30875     -44863.798    
      6500   2.3145939e-16  300.78531     -212.39891     -1161.6224      129.6372       394.78848      497.2306      -44864.23     
      7000  -4.6268893e-16  302.96532     -159.62351     -1238.9454      285.51374      474.56115      500.83439     -44868.398    
      7500   5.7807413e-16  298.59819     -387.93779     -1448.6673      281.03648      3.8175008      493.61506     -44864.023    
      8000   0              298.75377     -529.48037     -1576.5207      208.93523     -220.85562      493.87224     -44864.575    
      8500  -6.9300111e-16  298.99122     -277.85815     -1462.1636      474.45853      154.13062      494.26478     -44863.347    
      9000   2.308859e-16   299.56488     -423.90843     -1640.2786      161.45499      207.09831      495.2131      -44864.939    
      9500  -3.4615732e-16  300.86011     -159.254       -1208.2203      280.97933      449.47895      497.35425     -44869.676    
     10000   5.7664325e-16  297.40894     -161.28249     -1428.2871      406.62788      537.81172      491.64909     -44863.969    
     10500   0              298.80809     -95.748694     -1340.7933      540.02197      513.52524      493.96204     -44866.618    
     11000  -5.7607288e-16  299.52576     -545.29677     -1620.0688     -126.05608      110.23453      495.14843     -44868.824    
     11500   3.4547287e-16  301.58125     -850.48183     -2079.817      -351.2955      -120.33296      498.54638     -44871.463    
     12000  -2.3020146e-16  299.91704     -829.62957     -2111.8361     -200.27741     -176.77517      495.79525     -44869.727    
     12500   5.7521944e-16  298.61507     -676.93148     -2015.31        199.88864     -215.37309      493.64296     -44868.079    
     13000   0              301.56522     -712.90784     -2189.4579      1.0445685      49.689788      498.51987     -44872.621    
     13500  -5.7465189e-16  299.74645     -797.85473     -2440.4428     -3.0260992      49.904729      495.51325     -44869.197    
     14000   4.5949482e-16  301.61639     -892.31918     -2377.4459     -175.70143     -123.81018      498.60447     -44872.504    
     14500  -2.2963418e-16  299.95637     -1153.4112     -2835.5513     -344.24716     -280.43507      495.86027     -44869.389    
     15000   8.0332371e-16  301.7709      -1104.8801     -2612.3883     -437.32177     -264.93023      498.85989     -44873.619    
     15500   1.1470402e-16  299.88247     -1248.4633     -2731.6262     -541.47315     -472.29042      495.7381      -44869.689    
     16000  -5.7323788e-16  301.28174     -1351.5698     -3037.985      -551.90159     -464.82297      498.05126     -44872.219    
     16500   4.5836473e-16  300.53889     -1172.3544     -3063.3096     -97.566359     -356.1873       496.82324     -44870.981    
     17000  -2.2906969e-16  299.95229     -1073.6886     -3118.7177      125.89119     -228.2393       495.85354     -44868.326    
     17500  -8.0134994e-16  300.01016     -913.91023     -2884.9691     -0.2083349      143.4467       495.94919     -44867.45     
     18000   1.1442234e-16  297.87381     -852.37487     -2846.2803      275.19518      13.960493      492.41757     -44867.79     
     18500  -4.5746465e-16  302.29466     -1004.9844     -2922.0856     -25.606417     -67.261209      499.72572     -44873.311    
     19000   5.7155023e-16  302.899       -553.09912     -2457.3269      287.20987      510.81964      500.72475     -44874.79     
     19500  -1.1425398e-16  301.89295     -800.81563     -2612.0896      51.924023      157.71868      499.06166     -44873.762    
     20000  -7.9938584e-16  303.65399     -707.51074     -2635.24        205.91295      306.79477      501.97283     -44875.252    
     20500   1.1414203e-16  300.471       -688.62543     -2852.757       405.86003      381.02067      496.71101     -44873.99     
     21000  -4.5634451e-16  297.28208     -830.56239     -2866.2715     -116.23961      490.82393      491.43939     -44869.354    
     21500   5.7015143e-16  300.45653     -1094.7512     -2923.7494     -338.31146     -22.192669      496.68709     -44873.915    
     22000   0              297.733       -1098.6332     -2967.9283     -243.03262     -84.938637      492.1848      -44871.441    
     22500  -6.8351259e-16  300.27642     -1173.7188     -3318.5212      168.62438     -371.25949      496.38935     -44876.81     
     23000   3.4158926e-16  300.7682      -944.16109     -2990.2529      339.00295     -181.23328      497.20231     -44877.325    
     23500  -3.4142239e-16  298.7677      -848.77602     -2705.4407      222.01768     -62.90501       493.89527     -44875.355    
     24000   6.8251135e-16  302.26354     -986.98936     -2992.4782      224.44889     -192.93881      499.67428     -44879.635    
     24500   0              300.35909     -778.12875     -2942.5969      476.23917      131.97144      496.52602     -44880.915    
     25000  -6.8184549e-16  298.06676     -654.5996      -2713.0613      266.29912      482.96335      492.73655     -44873.027    
     25500   3.4075652e-16  299.09695     -838.79738     -2948.8991      59.888731      372.61819      494.43956     -44876.723    
     26000  -3.4059046e-16  301.55086     -1444.5371     -3534.4768     -640.04325     -159.09134      498.49614     -44879.095    
     26500   6.8084912e-16  300.65128     -1197.4514     -3194.2802     -524.04362      125.96962      497.00903     -44879.658    
     27000   1.1341961e-16  302.45239     -1118.6541     -3411.5124      74.109215     -18.559034      499.98646     -44883.709    
     27500  -5.6682208e-16  298.82408     -1105.1579     -3227.4878      170.59685     -258.58278      493.98848     -44879.364    
     28000   3.3992783e-16  301.29698     -1438.5619     -3683.1357     -365.77428     -266.77577      498.07645     -44884.044    
     28500  -2.2650839e-16  299.45044     -1090.4114     -3373.8466      22.803121      79.809424      495.02392     -44883.961    
     29000   6.7919497e-16  300.70153     -943.39626     -3064.0216      133.939        99.893854      497.0921      -44888.649    
     29500   1.1314418e-16  301.8842      -624.83123     -2324.5137      432.10457      17.915404      499.04719     -44891.628    
     30000  -4.5235704e-16  299.50703     -1188.8895     -3320.7145     -162.45978     -83.49433       495.11746     -44889.29     
Loop time of 4818.52 on 1 procs for 30000 steps with 12790 atoms

Performance: 0.538 ns/day, 44.616 hours/ns, 6.226 timesteps/s, 79.630 katom-step/s
29.8% CPU use with 1 MPI tasks x no OpenMP threads

MPI task timing breakdown:
Section |  min time  |  avg time  |  max time  |%varavg| %total
---------------------------------------------------------------
Pair    | 4792.8     | 4792.8     | 4792.8     |   0.0 | 99.47
Neigh   | 14.673     | 14.673     | 14.673     |   0.0 |  0.30
Comm    | 1.8104     | 1.8104     | 1.8104     |   0.0 |  0.04
Output  | 0.11264    | 0.11264    | 0.11264    |   0.0 |  0.00
Modify  | 8.6016     | 8.6016     | 8.6016     |   0.0 |  0.18
Other   |            | 0.5672     |            |       |  0.01

Nlocal:          12790 ave       12790 max       12790 min
Histogram: 1 0 0 0 0 0 0 0 0 0
Nghost:          22009 ave       22009 max       22009 min
Histogram: 1 0 0 0 0 0 0 0 0 0
Neighs:     2.6423e+06 ave  2.6423e+06 max  2.6423e+06 min
Histogram: 1 0 0 0 0 0 0 0 0 0

Total # of neighbors = 2642300
Ave neighs/atom = 206.59109
Neighbor list builds = 331
Dangerous builds = 0
Done.
Total wall time: 1:28:58
>>> Al @ 600 K (T=600)
LAMMPS (22 Jul 2025 - Update 4)
Reading data file ...
  orthogonal box = (0 0 0) to (60 60 60)
  1 by 1 by 1 MPI processor grid
  reading atoms ...
  12790 atoms
  read_data CPU = 0.020 seconds
Reading eam/alloy potential file /Users/danilavertiy/Downloads/atomsk-polycrystal-tension/potentials/Al_zhou.eam.alloy with DATE: 2007-10-12
Switching to 'neigh_modify every 1 delay 0 check yes' setting during minimization
Neighbor list info ...
  update: every = 1 steps, delay = 0 steps, check = yes
  max neighbors/atom: 2000, page size: 100000
  master list distance cutoff = 12.1025
  ghost atom cutoff = 12.1025
  binsize = 6.05125, bins = 10 10 10
  1 neighbor lists, perpetual/occasional/extra = 1 0 0
  (1) pair eam/alloy, perpetual
      attributes: half, newton on
      pair build: half/bin/atomonly/newton
      stencil: half/bin/3d
      bin: standard
Setting up cg style minimization ...
  Unit style    : metal
  Current step  : 0
Per MPI rank memory allocation (min/avg/max) = 23.03 | 23.03 | 23.03 Mbytes
   Step          Temp          E_pair         E_mol          TotEng         Press     
         0   0             -40955.556      0             -40955.556      68182.616    
       500   0             -45315.482      0             -45315.482      23504.443    
Loop time of 40.6833 on 1 procs for 500 steps with 12790 atoms

99.7% CPU use with 1 MPI tasks x no OpenMP threads

Minimization stats:
  Stopping criterion = max iterations
  Energy initial, next-to-last, final = 
     -40955.5563016907   -45315.456735025  -45315.4819575211
  Force two-norm initial, final = 917.05532 0.38125013
  Force max component initial, final = 193.45198 0.15901509
  Final line search alpha, max atom move = 1 0.15901509
  Iterations, force evaluations = 500 730

MPI task timing breakdown:
Section |  min time  |  avg time  |  max time  |%varavg| %total
---------------------------------------------------------------
Pair    | 38.707     | 38.707     | 38.707     |   0.0 | 95.14
Neigh   | 1.7245     | 1.7245     | 1.7245     |   0.0 |  4.24
Comm    | 0.050724   | 0.050724   | 0.050724   |   0.0 |  0.12
Output  | 3.2458e-05 | 3.2458e-05 | 3.2458e-05 |   0.0 |  0.00
Modify  | 0          | 0          | 0          |   0.0 |  0.00
Other   |            | 0.2013     |            |       |  0.49

Nlocal:          12790 ave       12790 max       12790 min
Histogram: 1 0 0 0 0 0 0 0 0 0
Nghost:          22557 ave       22557 max       22557 min
Histogram: 1 0 0 0 0 0 0 0 0 0
Neighs:    2.78132e+06 ave 2.78132e+06 max 2.78132e+06 min
Histogram: 1 0 0 0 0 0 0 0 0 0

Total # of neighbors = 2781320
Ave neighs/atom = 217.46052
Neighbor list builds = 34
Dangerous builds = 0
Setting up Verlet run ...
  Unit style    : metal
  Current step  : 500
  Time step     : 0.001
Per MPI rank memory allocation (min/avg/max) = 20.04 | 20.04 | 20.04 Mbytes
   Step          Temp          PotEng         Press            Lx             Ly             Lz      
       500   600           -45315.482      28409.204      60             60             60           
      1000   392.01056     -44601.549      326.99719      61.233054      61.233054      61.233054    
      1500   568.47423     -44203.566      501.8316       61.604995      61.604995      61.604995    
      2000   598.6706      -44068.048     -36.633762      61.755226      61.755226      61.755226    
      2500   602.17301     -44043.273     -85.387714      61.779232      61.779232      61.779232    
      3000   596.6573      -44030.43       127.29573      61.786979      61.786979      61.786979    
      3500   597.62878     -43993.138      65.901754      61.822066      61.822066      61.822066    
      4000   599.90032     -43991.408     -24.868561      61.829065      61.829065      61.829065    
      4500   600.49427     -43962.276      127.63302      61.846605      61.846605      61.846605    
      5000   598.74142     -43942.841      24.57729       61.870414      61.870414      61.870414    
      5500   600.74958     -43935.452      157.19731      61.877484      61.877484      61.877484    
      6000   594.49221     -43912.578     -78.528667      61.904962      61.904962      61.904962    
      6500   603.57793     -43891.226      97.187827      61.918052      61.918052      61.918052    
      7000   598.60654     -43874.107      268.31751      61.925874      61.925874      61.925874    
      7500   599.15044     -43876.492     -292.58187      61.948858      61.948858      61.948858    
      8000   598.96615     -43838.952      209.37162      61.958859      61.958859      61.958859    
      8500   600.60093     -43835.015     -47.197415      61.981699      61.981699      61.981699    
      9000   595.75844     -43841.827     -195.53849      61.977042      61.977042      61.977042    
      9500   596.45651     -43814.682      374.97285      61.98325       61.98325       61.98325     
     10000   598.13666     -43796.513     -268.15184      62.023134      62.023134      62.023134    
     10500   599.97812     -43794.747      602.35741      61.991743      61.991743      61.991743    
Loop time of 464.036 on 1 procs for 10000 steps with 12790 atoms

Performance: 1.862 ns/day, 12.890 hours/ns, 21.550 timesteps/s, 275.625 katom-step/s
99.5% CPU use with 1 MPI tasks x no OpenMP threads

MPI task timing breakdown:
Section |  min time  |  avg time  |  max time  |%varavg| %total
---------------------------------------------------------------
Pair    | 453.55     | 453.55     | 453.55     |   0.0 | 97.74
Neigh   | 7.5616     | 7.5616     | 7.5616     |   0.0 |  1.63
Comm    | 0.57126    | 0.57126    | 0.57126    |   0.0 |  0.12
Output  | 0.0023368  | 0.0023368  | 0.0023368  |   0.0 |  0.00
Modify  | 2.1742     | 2.1742     | 2.1742     |   0.0 |  0.47
Other   |            | 0.173      |            |       |  0.04

Nlocal:          12790 ave       12790 max       12790 min
Histogram: 1 0 0 0 0 0 0 0 0 0
Nghost:          21598 ave       21598 max       21598 min
Histogram: 1 0 0 0 0 0 0 0 0 0
Neighs:    2.53689e+06 ave 2.53689e+06 max 2.53689e+06 min
Histogram: 1 0 0 0 0 0 0 0 0 0

Total # of neighbors = 2536889
Ave neighs/atom = 198.34941
Neighbor list builds = 183
Dangerous builds = 0
L0=61.9917427753211 T=600 material=Al
Setting up Verlet run ...
  Unit style    : metal
  Current step  : 0
  Time step     : 0.001
Per MPI rank memory allocation (min/avg/max) = 20.04 | 20.04 | 20.04 Mbytes
   Step        v_strain         Temp          Press           Pxx            Pyy            Pzz           KinEng         PotEng    
         0   0              599.97812      602.35741      1045.158       288.62816      473.28608      991.82863     -43794.747    
       500  -6.8736991e-16  599.37053     -0.87075016     426.42937     -307.47783     -121.56379      990.82421     -43790.279    
      1000   3.4351328e-16  601.76931     -403.7824      -336.48774     -500.06511     -374.79434      994.78966     -43784.885    
      1500  -3.4334178e-16  599.62162     -263.67746     -286.41004     -597.77302      93.15069       991.23929     -43775.6      
      2000   5.7195076e-16  605.74481      68.702231      52.181849      58.262634      95.662211      1001.3616     -43774.627    
      2500   1.143331e-16   602.17127      135.0866       343.47869      296.13612     -234.355        995.45414     -43771.738    
      3000  -5.7138052e-16  600.77839      278.8856       930.86668      8.2068606     -102.41673      993.15156     -43770.351    
      3500   4.5687666e-16  599.42928      80.945463      206.09688      10.917647      25.821864      990.92134     -43765.586    
      4000  -1.1416228e-16  602.75427     -87.0993        360.30793     -185.33253     -436.2733       996.4179      -43772.521    
      4500  -7.987382e-16   602.10614      105.63491     -57.130581      21.13075       352.90455      995.34648     -43768.304    
      5000   2.2809738e-16  594.75007      364.16214     -0.12034966     591.22665      501.38014      983.18609     -43759.679    
      5500  -4.5596791e-16  600.26223     -128.41614      103.72663     -73.209933     -415.76512      992.29828     -43776.49     
      6000   4.5574128e-16  599.14108     -18.891379      12.548546      93.653104     -162.87579      990.4449      -43765.111    
      6500  -1.1387872e-16  603.10611      235.72052     -189.16384      671.42889      224.89651      996.99954     -43776.684    
      7000   7.9675524e-16  600.19349      2.0745495     -3.8927044      223.45327     -213.33691      992.18466     -43766.298    
      7500   1.1376569e-16  603.83759      467.87342      575.78499      267.08984      560.74545      998.20876     -43777.093    
      8000  -4.5483703e-16  598.90469      30.322488      346.77016     -129.52869     -126.27401      990.05413     -43771.691    
      8500   4.5461153e-16  606.45087      132.54416      373.20346     -88.600032      113.02905      1002.5288     -43776.778    
      9000  -2.2719313e-16  596.71012      344.87611      154.27423      553.77583      326.57828      986.42627     -43763.499    
      9500   7.9478209e-16  596.04943     -388.18764     -581.12544      215.48806     -798.92554      985.33408     -43760.252    
     10000   1.1348409e-16  601.14925     -116.26391      298.77042     -410.74145     -236.8207       993.76463     -43771.441    
     10500  -5.6713969e-16  604.76573      299.804        646.76355     -246.09231      498.74076      999.74306     -43782.798    
     11000   5.6685921e-16  598.15417     -185.06674      56.425295     -283.14165     -328.48386      988.81344     -43772.171    
     11500   0              601.28489     -2.4097971      179.43044      57.735559     -244.39539      993.98886     -43776.055    
     12000  -5.6629907e-16  599.96377     -809.4346      -778.40301     -878.92576     -770.97502      991.80491     -43771.243    
     12500   3.3961165e-16  594.94925     -57.618431      45.955659     -8.5286459     -210.28231      983.51535     -43764.336    
     13000  -3.3944402e-16  600.18367      501.22458      571.739        379.72905      552.2057       992.16842     -43776.492    
     13500   6.7855313e-16  596.83733      200.03747     -52.899821      542.1457       110.86652      986.63655     -43770.045    
     14000   0              601.73488     -205.21946     -302.86492     -422.82175      110.02827      994.73275     -43771.969    
     14500  -6.7788427e-16  602.44598     -429.8911      -87.501075     -342.70323     -859.469        995.90827     -43776.813    
     15000   3.3877517e-16  597.16864      711.5828       574.52473      755.9635       804.26017      987.18426     -43763.565    
     15500  -3.3860837e-16  601.64895      121.45151     -1.3536239      58.03056       307.67759      994.59069     -43776.822    
     16000   5.6406955e-16  598.79914      138.18762      305.78245     -152.04368      260.82408      989.87964     -43772.7      
     16500   0              600.02723     -368.25419     -831.92526      58.987442     -331.82474      991.90981     -43762.626    
     17000  -6.7621789e-16  603.27156     -174.82006     -116.62502     -467.31668      59.481508      997.27304     -43771.372    
     17500   2.252952e-16   602.16437      286.28618      428.27551      35.363817      395.21922      995.44273     -43768.775    
     18000  -3.3777681e-16  602.97539      329.44204      588.08794     -101.61223      501.8504       996.78343     -43777.328    
     18500   5.6268499e-16  594.81392     -221.24936     -279.85219     -416.27392      32.378031      983.29165     -43759.253    
     19000   2.2496356e-16  597.85165      73.430984     -46.864262      319.16324     -52.006031      988.31334     -43766.308    
     19500  -4.4970645e-16  596.23432     -187.20697     -35.08785      -283.78191     -242.75114      985.63972     -43766.085    
     20000   4.4948601e-16  596.71706      11.388792     -151.34158      323.49002     -137.98206      986.43775     -43756.576    
     20500  -1.1231645e-16  592.83579      289.76308      720.84353      155.57288     -7.1271631      980.02158     -43760.9      
     21000   7.8583009e-16  599.2291      -434.25213     -393.85738     -701.2731      -207.62592      990.59042     -43767.059    
     21500   1.1220649e-16  595.30813     -173.44718     -400.71073     -79.878577     -39.75223       984.10863     -43761.568    
     22000  -4.4860639e-16  600.78713      236.16688     -15.504141      74.26039       649.74438      993.16601     -43766.755    
     22500   4.4838702e-16  599.22426     -192.02776     -256.45902     -215.72201     -103.90224      990.58242     -43767.569    
     23000  -2.2408393e-16  596.22079      214.90305     -33.281887      590.41983      87.571198      985.61736     -43760.526    
     23500   7.8391063e-16  600.19866      55.956405      578.07439     -386.54259     -23.662586      992.1932      -43765.4      
     24000   1.1193255e-16  601.37681      422.24716      324.72944      621.43642      320.57564      994.14081     -43772.913    
     24500  -5.5938962e-16  598.97293     -122.0073       51.665634     -204.66374     -213.02381      990.16693     -43765.801    
     25000   4.4729339e-16  594.5328      -184.26351     -244.86205     -614.95104      307.02255      982.82693     -43765.267    
     25500  -2.2353765e-16  604.8039      -170.03164     -245.26388      47.850941     -312.68199      999.80615     -43781.904    
     26000   7.8200051e-16  605.21017     -60.613731     -159.78473      216.66607     -238.72253      1000.4778     -43778.093    
     26500   2.2331989e-16  603.13107     -231.9776      -185.26965     -170.15063     -340.51252      997.04079     -43779.309    
     27000  -4.4642233e-16  604.31297      279.48293      573.585        388.41642     -123.55262      998.9946      -43768.867    
     27500   6.6930763e-16  605.88261      136.44011      241.25568      73.845456      94.219187      1001.5894     -43784.407    
     28000   0              600.54408     -144.4354      -355.66374      224.5991      -302.24155      992.76423     -43776.302    
     28500  -6.6865687e-16  597.6029      -303.53095     -318.25985     -614.97283      22.639825      987.90213     -43768.933    
     29000   3.3416598e-16  605.11702      16.093303     -0.69274447     155.39298     -106.42032      1000.3238     -43779.524    
     29500  -3.3400369e-16  596.42725     -110.4435      -95.534454      77.965145     -313.7612       985.95866     -43766.335    
     30000   5.5640258e-16  595.42237      177.1551       214.54076      437.01908     -120.09454      984.29749     -43764.465    
Loop time of 1555.06 on 1 procs for 30000 steps with 12790 atoms

Performance: 1.667 ns/day, 14.399 hours/ns, 19.292 timesteps/s, 246.742 katom-step/s
90.7% CPU use with 1 MPI tasks x no OpenMP threads

MPI task timing breakdown:
Section |  min time  |  avg time  |  max time  |%varavg| %total
---------------------------------------------------------------
Pair    | 1520.2     | 1520.2     | 1520.2     |   0.0 | 97.76
Neigh   | 23.847     | 23.847     | 23.847     |   0.0 |  1.53
Comm    | 1.8238     | 1.8238     | 1.8238     |   0.0 |  0.12
Output  | 0.12094    | 0.12094    | 0.12094    |   0.0 |  0.01
Modify  | 8.5471     | 8.5471     | 8.5471     |   0.0 |  0.55
Other   |            | 0.5555     |            |       |  0.04

Nlocal:          12790 ave       12790 max       12790 min
Histogram: 1 0 0 0 0 0 0 0 0 0
Nghost:          21596 ave       21596 max       21596 min
Histogram: 1 0 0 0 0 0 0 0 0 0
Neighs:    2.53343e+06 ave 2.53343e+06 max 2.53343e+06 min
Histogram: 1 0 0 0 0 0 0 0 0 0

Total # of neighbors = 2533426
Ave neighs/atom = 198.07866
Neighbor list builds = 562
Dangerous builds = 0
Done.
Total wall time: 0:34:20
Все расчёты завершены. Построение графиков: python3 plot_stress_strain.py
