LAMMPS (22 Jul 2025 - Update 4)
# Одноосное растяжение поликристалла
# Обязательные -var: temp datafile potfile elem material

units           metal
atom_style      atomic
boundary        p p p

read_data       ${datafile}
read_data       /Users/danilavertiy/Downloads/atomsk-polycrystal-tension/models/Al_poly.data
Reading data file ...
  orthogonal box = (0 0 0) to (60 60 60)
  1 by 1 by 1 MPI processor grid
  reading atoms ...
  12790 atoms
  read_data CPU = 0.020 seconds

pair_style      eam/alloy
pair_coeff      * * ${potfile} ${elem}
pair_coeff      * * /Users/danilavertiy/Downloads/atomsk-polycrystal-tension/potentials/Al_zhou.eam.alloy ${elem}
pair_coeff      * * /Users/danilavertiy/Downloads/atomsk-polycrystal-tension/potentials/Al_zhou.eam.alloy Al
Reading eam/alloy potential file /Users/danilavertiy/Downloads/atomsk-polycrystal-tension/potentials/Al_zhou.eam.alloy with DATE: 2007-10-12

neighbor        2.0 bin
neigh_modify    delay 10 every 1

timestep        0.001

reset_timestep  0
minimize        1.0e-12 1.0e-12 500 5000
Switching to 'neigh_modify every 1 delay 0 check yes' setting during minimization
Neighbor list info ...
  update: every = 1 steps, delay = 0 steps, check = yes
  max neighbors/atom: 2000, page size: 100000
  master list distance cutoff = 12.1025
  ghost atom cutoff = 12.1025
  binsize = 6.05125, bins = 10 10 10
  1 neighbor lists, perpetual/occasional/extra = 1 0 0
  (1) pair eam/alloy, perpetual
      attributes: half, newton on
      pair build: half/bin/atomonly/newton
      stencil: half/bin/3d
      bin: standard
Per MPI rank memory allocation (min/avg/max) = 23.03 | 23.03 | 23.03 Mbytes
   Step          Temp          E_pair         E_mol          TotEng         Press     
         0   0             -40955.556      0             -40955.556      68182.616    
       500   0             -45315.482      0             -45315.482      23504.443    
Loop time of 44.2518 on 1 procs for 500 steps with 12790 atoms

97.6% CPU use with 1 MPI tasks x no OpenMP threads

Minimization stats:
  Stopping criterion = max iterations
  Energy initial, next-to-last, final = 
     -40955.5563016907   -45315.456735025  -45315.4819575211
  Force two-norm initial, final = 917.05532 0.38125013
  Force max component initial, final = 193.45198 0.15901509
  Final line search alpha, max atom move = 1 0.15901509
  Iterations, force evaluations = 500 730

MPI task timing breakdown:
Section |  min time  |  avg time  |  max time  |%varavg| %total
---------------------------------------------------------------
Pair    | 42.121     | 42.121     | 42.121     |   0.0 | 95.18
Neigh   | 1.8575     | 1.8575     | 1.8575     |   0.0 |  4.20
Comm    | 0.058566   | 0.058566   | 0.058566   |   0.0 |  0.13
Output  | 0.00080463 | 0.00080463 | 0.00080463 |   0.0 |  0.00
Modify  | 0          | 0          | 0          |   0.0 |  0.00
Other   |            | 0.2142     |            |       |  0.48

Nlocal:          12790 ave       12790 max       12790 min
Histogram: 1 0 0 0 0 0 0 0 0 0
Nghost:          22557 ave       22557 max       22557 min
Histogram: 1 0 0 0 0 0 0 0 0 0
Neighs:    2.78132e+06 ave 2.78132e+06 max 2.78132e+06 min
Histogram: 1 0 0 0 0 0 0 0 0 0

Total # of neighbors = 2781320
Ave neighs/atom = 217.46052
Neighbor list builds = 34
Dangerous builds = 0

variable        T equal ${temp}
variable        T equal 1
velocity        all create ${T} 492845 rot yes dist gaussian
velocity        all create 1 492845 rot yes dist gaussian

fix             eq all npt temp ${T} ${T} 0.1 iso 0 0 1
fix             eq all npt temp 1 ${T} 0.1 iso 0 0 1
fix             eq all npt temp 1 1 0.1 iso 0 0 1
thermo          500
thermo_style    custom step temp pe press lx ly lz
run             10000
Per MPI rank memory allocation (min/avg/max) = 20.04 | 20.04 | 20.04 Mbytes
   Step          Temp          PotEng         Press            Lx             Ly             Lz      
       500   1             -45315.482      23512.617      60             60             60           
      1000   1.0311332     -45360.163      0.09107394     60.589868      60.589868      60.589868    
      1500   0.98782899    -45360.363      0.079176627    60.591689      60.591689      60.591689    
      2000   0.98773801    -45360.503     -0.047138553    60.59268       60.59268       60.59268     
      2500   1.0402855     -45360.831      0.031295538    60.592284      60.592284      60.592284    
      3000   1.079205      -45361.532      0.088713125    60.592292      60.592292      60.592292    
      3500   1.0178201     -45362.029      0.040882412    60.591683      60.591683      60.591683    
      4000   0.97968201    -45362.416     -0.039032714    60.591321      60.591321      60.591321    
      4500   1.121244      -45363.155      0.011190303    60.590514      60.590514      60.590514    
      5000   1.0144158     -45363.382     -0.021481569    60.591086      60.591086      60.591086    
      5500   1.0348211     -45363.947      0.08812488     60.590563      60.590563      60.590563    
      6000   1.0141314     -45364.369     -0.022911229    60.589759      60.589759      60.589759    
      6500   1.0858124     -45365.203      0.03162984     60.588846      60.588846      60.588846    
      7000   1.0668326     -45366.001     -0.021649596    60.588742      60.588742      60.588742    
      7500   0.98882717    -45366.494     -0.039654082    60.587998      60.587998      60.587998    
      8000   1.0846236     -45367.143      0.056529298    60.586197      60.586197      60.586197    
      8500   1.0158697     -45367.926     -0.016329701    60.585191      60.585191      60.585191    
      9000   1.0316558     -45368.435     -0.010355242    60.585427      60.585427      60.585427    
      9500   0.97194014    -45368.723     -0.12426722     60.58535       60.58535       60.58535     
     10000   1.0910039     -45369.15      -0.042621915    60.58505       60.58505       60.58505     
     10500   1.0194863     -45369.247      0.044923343    60.584686      60.584686      60.584686    
Loop time of 497.389 on 1 procs for 10000 steps with 12790 atoms

Performance: 1.737 ns/day, 13.816 hours/ns, 20.105 timesteps/s, 257.143 katom-step/s
98.6% CPU use with 1 MPI tasks x no OpenMP threads

MPI task timing breakdown:
Section |  min time  |  avg time  |  max time  |%varavg| %total
---------------------------------------------------------------
Pair    | 493.31     | 493.31     | 493.31     |   0.0 | 99.18
Neigh   | 0.9407     | 0.9407     | 0.9407     |   0.0 |  0.19
Comm    | 0.59526    | 0.59526    | 0.59526    |   0.0 |  0.12
Output  | 0.0045109  | 0.0045109  | 0.0045109  |   0.0 |  0.00
Modify  | 2.3411     | 2.3411     | 2.3411     |   0.0 |  0.47
Other   |            | 0.1986     |            |       |  0.04

Nlocal:          12790 ave       12790 max       12790 min
Histogram: 1 0 0 0 0 0 0 0 0 0
Nghost:          22265 ave       22265 max       22265 min
Histogram: 1 0 0 0 0 0 0 0 0 0
Neighs:    2.70331e+06 ave 2.70331e+06 max 2.70331e+06 min
Histogram: 1 0 0 0 0 0 0 0 0 0

Total # of neighbors = 2703310
Ave neighs/atom = 211.36122
Neighbor list builds = 22
Dangerous builds = 0
unfix           eq

variable        L0 equal lx
print           "L0=${L0} T=${T} material=${material}"
L0=60.5846862050905 T=1 material=Al

reset_timestep  0
fix             1 all npt temp ${T} ${T} 0.1 y 0 0 1 z 0 0 1 drag 1.0
fix             1 all npt temp 1 ${T} 0.1 y 0 0 1 z 0 0 1 drag 1.0
fix             1 all npt temp 1 1 0.1 y 0 0 1 z 0 0 1 drag 1.0
variable        erate equal 1.0e9
variable        erate_ps equal "v_erate/1.0e12"
fix             2 all deform 1 x erate ${erate_ps} units box remap x
fix             2 all deform 1 x erate 0.001 units box remap x

variable        strain equal "(lx - v_L0)/v_L0"
variable        sxx equal "-pxx/10000"
variable        syy equal "-pyy/10000"
variable        szz equal "-pzz/10000"
fix             out all print 200 "${strain} ${sxx} ${syy} ${szz}" file stress_strain.dat screen no

dump            1 all custom 2000 dump_tension.lammpstrj id type x y z
dump_modify     1 element ${elem} sort id
dump_modify     1 element Al sort id

thermo          500
thermo_style    custom step v_strain temp press pxx pyy pzz ke pe
run             30000
Per MPI rank memory allocation (min/avg/max) = 20.04 | 20.04 | 20.04 Mbytes
   Step        v_strain         Temp          Press           Pxx            Pyy            Pzz           KinEng         PotEng    
         0  -1.1728091e-16  1.0194863      0.044923343    122.07167     -626.86706      504.93016      1.685321      -45369.247    
       500   5.8611151e-16  1.0244078      22.271288      59.017539     -4.742294       12.538619      1.6934567     -45369.494    
      1000  -3.5149125e-16  1.056186      -58.239429     -173.10725      7.3135567     -8.9245905      1.7459896     -45369.753    
      1500   4.6842102e-16  1.1079868     -80.148102     -240.19774      4.0127515     -4.259314       1.8316219     -45370.064    
      2000  -4.6818728e-16  1.0436        -104.45484     -314.34163     -1.4862807      2.4634014      1.7251835     -45370.219    
      2500   3.5096533e-16  1.0569928     -224.33074     -671.99329     -3.2086954      2.2097798      1.7473232     -45370.451    
      3000  -5.8465062e-16  1.0870303     -256.99398     -771.52151      0.64956401    -0.10998886     1.7969784     -45370.727    
      3500   2.3374372e-16  1.1235977     -298.01544     -894.28227      1.9104291     -1.6744894      1.8574283     -45371.136    
      4000  -7.0088195e-16  1.1515411     -333.1284      -998.97754     -0.15751198    -0.25015828     1.9036217     -45371.64     
      4500   0              1.1785465     -388.35571     -1165.0521     -1.055256       1.0402089      1.9482646     -45372.18     
      5000   8.1688199e-16  1.1975252     -414.83015     -1244.6891     -0.10449861     0.30319396     1.9796384     -45372.737    
      5500  -1.166394e-16   1.2152264     -426.81203     -1280.1674      0.47807538    -0.7467913      2.0089005     -45373.322    
      6000   5.8290713e-16  1.1356561     -488.60399     -1465.8204      0.15200651    -0.14358951     1.8773622     -45373.718    
      6500  -3.4957053e-16  1.1605276     -552.75203     -1658.3016     -0.35110619     0.39664167     1.9184775     -45374.131    
      7000   4.6586262e-16  1.1101742     -562.07072     -1686.2614     -0.035352856    0.084614976    1.8352379     -45374.45     
      7500  -3.4922356e-16  1.1647831     -577.32863     -1732.0229      0.24292461    -0.20589941     1.9255122     -45374.819    
      8000   3.4905034e-16  1.2777757     -613.27516     -1840           0.084946346    0.08955846     2.1123013     -45375.728    
      8500  -5.8146214e-16  1.1431635     -698.58773     -2095.3837     -0.32065301    -0.058839188    1.8897728     -45376.058    
      9000   2.324696e-16   1.1051512     -763.89698     -2291.8836      0.050340177    0.14230732     1.8269343     -45376.291    
      9500  -6.9706338e-16  1.0564745     -795.88293     -2387.7664      0.14950919    -0.03194273     1.7464665     -45376.331    
     10000   0              1.0276613     -824.37439     -2472.9763     -0.067276333   -0.079629375    1.6988351     -45376.331    
     10500   8.1243582e-16  1.0123026     -889.24613     -2667.7859     -0.057689173    0.10521862     1.6734455     -45376.325    
     11000  -1.1600486e-16  1.0146457     -941.32865     -2823.9127     -0.0060485024  -0.067233943    1.6773189     -45376.224    
     11500   5.7973759e-16  1.0141369     -968.11417     -2904.42        0.025173532    0.05234871     1.6764779     -45376.109    
     12000  -3.4767069e-16  0.99691843    -1050.3229     -3150.9613     -0.0071117186  -0.00029165892  1.6480138     -45375.915    
     12500   4.63332e-16    1.0140108     -1067.0256     -3201.0075     -0.0060609229  -0.063338757    1.6762694     -45375.765    
     13000  -4.6310331e-16  0.99311647    -1108.0167     -3324.162       0.023164435    0.088758296    1.6417288     -45375.58     
     13500   2.3143742e-16  0.99424027    -1182.9534     -3548.7784     -0.084562478    0.0025981864   1.6435865     -45375.352    
     14000  -6.939699e-16   0.99579398    -1205.5388     -3616.4109     -0.084153232   -0.12132631     1.646155      -45375.128    
     14500   1.1560465e-16  1.040472      -1234.7399     -3704.2246     -0.0057009075   0.010499399    1.7200126     -45375.138    
     15000  -8.0883389e-16  1.0196543     -1295.2656     -3885.7751     -0.039306877    0.017622455    1.6855987     -45375.019    
     15500  -1.1549081e-16  1.0342334     -1327.7859     -3983.6802      0.18706613     0.13528526     1.7096995     -45374.893    
     16000   6.9260382e-16  1.0625324     -1369.5        -4108.6154      0.053949387    0.061611809    1.7564808     -45374.97     
     16500  -2.3075438e-16  1.0444484     -1412.335      -4236.8542     -0.11239769    -0.038395146    1.7265859     -45374.915    
     17000   4.6128186e-16  1.0053884     -1475.4262     -4426.4934      0.14556198     0.069202338    1.6620156     -45374.654    
     17500  -4.6105519e-16  1.0436841     -1489.1748     -4467.5554      0.033967994   -0.00285161     1.7253225     -45374.414    
     18000   3.4562155e-16  1.0751695     -1542.3901     -4626.9918     -0.13334221    -0.045304938    1.7773712     -45374.441    
     18500  -4.6060251e-16  1.0494881     -1579.8997     -4739.616      -0.033368095   -0.0496707      1.7349172     -45374.384    
     19000   2.3018825e-16  1.0173671     -1616.115      -4848.3626     -0.04575967     0.06336719     1.6818177     -45374.146    
     19500  -6.9022607e-16  1.0348669     -1652.4679     -4957.3335     -0.020022269   -0.050089051    1.7107468     -45374.053    
     20000   1.1498129e-16  1.0137676     -1679.5351     -5038.4244     -0.092786893   -0.088020972    1.6758674     -45373.876    
     20500  -8.0447467e-16  1.0179381     -1716.8654     -5150.6907      0.0043337232   0.090209054    1.6827616     -45373.701    
     21000  -1.1486867e-16  1.0462843     -1748.1112     -5244.3844      0.089665776   -0.038948478    1.7296209     -45373.506    
     21500   6.8887468e-16  1.0610655     -1787.5914     -5362.5576     -0.11940554    -0.097361884    1.7540558     -45373.391    
     22000  -2.2951255e-16  1.1157196     -1768.5134     -5305.3907     -0.085323058   -0.0641422      1.844405      -45373.42     
     22500   4.5880064e-16  1.1175374     -1788.3934     -5365.3612      0.042116217    0.1387425      1.84741       -45373.519    
     23000  -3.439323e-16   1.1085255     -1830.5794     -5491.7735      0.018966601    0.016289131    1.8325124     -45373.541    
     23500   4.5835237e-16  1.0749545     -1858.0378     -5573.9914     -0.044878754   -0.077226679    1.7770159     -45373.587    
     24000  -4.5812857e-16  1.0312591     -1941.654      -5824.9813      0.017720665    0.0016489696   1.7047826     -45373.415    
     24500   2.2895249e-16  1.044862      -1967.3048     -5901.858      -0.053820678   -0.0025120959   1.7272697     -45373.286    
     25000  -6.8652242e-16  1.1051997     -2059.8897     -6179.8686      0.0090745639   0.1903107      1.8270144     -45373.222    
     25500   1.1436462e-16  1.0030966     -2062.1502     -6186.2845     -0.045876356   -0.12037829     1.6582271     -45372.859    
     26000  -8.0016218e-16  1.0658959     -2091.8451     -6275.5903     -0.0079457785   0.063073134    1.7620411     -45372.802    
     26500  -1.142532e-16   1.0762184     -2135.3575     -6406.273       0.086567917    0.11379642     1.7791052     -45372.624    
     27000   6.8518547e-16  1.0294083     -2176.7489     -6530.2849      0.057073045   -0.018910849    1.7017232     -45372.349    
     27500  -2.2828402e-16  1.0139158     -2188.721      -6565.8985     -0.11375894    -0.15064305     1.6761124     -45371.953    
     28000   4.5634597e-16  1.0118843     -2270.698      -6811.9631     -0.039513584   -0.09126162     1.672754      -45371.627    
     28500  -4.5612412e-16  1.0419217     -2278.6939     -6836.0513     -0.026165616   -0.0043835263   1.722409      -45371.303    
     29000   3.4192686e-16  1.1236225     -2251.7735     -6755.5096      0.10267764     0.086322963    1.8574693     -45371.298    
     29500  -5.6960133e-16  1.106985      -2292.1019     -6876.5418      0.10853335     0.12743623     1.8299658     -45371.278    
     30000   1.1386496e-16  1.0861305     -2322.5722     -6967.5532     -0.11555715    -0.047653369    1.7954909     -45371.074    
Loop time of 1452.53 on 1 procs for 30000 steps with 12790 atoms

Performance: 1.784 ns/day, 13.449 hours/ns, 20.654 timesteps/s, 264.159 katom-step/s
99.4% CPU use with 1 MPI tasks x no OpenMP threads

MPI task timing breakdown:
Section |  min time  |  avg time  |  max time  |%varavg| %total
---------------------------------------------------------------
Pair    | 1439.2     | 1439.2     | 1439.2     |   0.0 | 99.08
Neigh   | 2.4723     | 2.4723     | 2.4723     |   0.0 |  0.17
Comm    | 1.7061     | 1.7061     | 1.7061     |   0.0 |  0.12
Output  | 0.10808    | 0.10808    | 0.10808    |   0.0 |  0.01
Modify  | 8.5098     | 8.5098     | 8.5098     |   0.0 |  0.59
Other   |            | 0.569      |            |       |  0.04

Nlocal:          12790 ave       12790 max       12790 min
Histogram: 1 0 0 0 0 0 0 0 0 0
Nghost:          22232 ave       22232 max       22232 min
Histogram: 1 0 0 0 0 0 0 0 0 0
Neighs:     2.6965e+06 ave  2.6965e+06 max  2.6965e+06 min
Histogram: 1 0 0 0 0 0 0 0 0 0

Total # of neighbors = 2696495
Ave neighs/atom = 210.82838
Neighbor list builds = 53
Dangerous builds = 0

print           "Done."
Done.
Total wall time: 0:33:14
